** SpjutSim FEA independent reference: gravity-reaction
** Generated by tools/generate-calculix-reference.py; SI units.
*NODE
1, 0, 0, 0
2, 0.125, 0, 0
3, 0.25, 0, 0
4, 0.375, 0, 0
5, 0.5, 0, 0
6, 0.625, 0, 0
7, 0.75, 0, 0
8, 0.875, 0, 0
9, 1, 0, 0
10, 0, 0.125, 0
11, 0.125, 0.125, 0
12, 0.25, 0.125, 0
13, 0.375, 0.125, 0
14, 0.5, 0.125, 0
15, 0.625, 0.125, 0
16, 0.75, 0.125, 0
17, 0.875, 0.125, 0
18, 1, 0.125, 0
19, 0, 0.25, 0
20, 0.125, 0.25, 0
21, 0.25, 0.25, 0
22, 0.375, 0.25, 0
23, 0.5, 0.25, 0
24, 0.625, 0.25, 0
25, 0.75, 0.25, 0
26, 0.875, 0.25, 0
27, 1, 0.25, 0
28, 0, 0.375, 0
29, 0.125, 0.375, 0
30, 0.25, 0.375, 0
31, 0.375, 0.375, 0
32, 0.5, 0.375, 0
33, 0.625, 0.375, 0
34, 0.75, 0.375, 0
35, 0.875, 0.375, 0
36, 1, 0.375, 0
37, 0, 0.5, 0
38, 0.125, 0.5, 0
39, 0.25, 0.5, 0
40, 0.375, 0.5, 0
41, 0.5, 0.5, 0
42, 0.625, 0.5, 0
43, 0.75, 0.5, 0
44, 0.875, 0.5, 0
45, 1, 0.5, 0
46, 0, 0.625, 0
47, 0.125, 0.625, 0
48, 0.25, 0.625, 0
49, 0.375, 0.625, 0
50, 0.5, 0.625, 0
51, 0.625, 0.625, 0
52, 0.75, 0.625, 0
53, 0.875, 0.625, 0
54, 1, 0.625, 0
55, 0, 0.75, 0
56, 0.125, 0.75, 0
57, 0.25, 0.75, 0
58, 0.375, 0.75, 0
59, 0.5, 0.75, 0
60, 0.625, 0.75, 0
61, 0.75, 0.75, 0
62, 0.875, 0.75, 0
63, 1, 0.75, 0
64, 0, 0.875, 0
65, 0.125, 0.875, 0
66, 0.25, 0.875, 0
67, 0.375, 0.875, 0
68, 0.5, 0.875, 0
69, 0.625, 0.875, 0
70, 0.75, 0.875, 0
71, 0.875, 0.875, 0
72, 1, 0.875, 0
73, 0, 1, 0
74, 0.125, 1, 0
75, 0.25, 1, 0
76, 0.375, 1, 0
77, 0.5, 1, 0
78, 0.625, 1, 0
79, 0.75, 1, 0
80, 0.875, 1, 0
81, 1, 1, 0
82, 0, 0, 0.125
83, 0.125, 0, 0.125
84, 0.25, 0, 0.125
85, 0.375, 0, 0.125
86, 0.5, 0, 0.125
87, 0.625, 0, 0.125
88, 0.75, 0, 0.125
89, 0.875, 0, 0.125
90, 1, 0, 0.125
91, 0, 0.125, 0.125
92, 0.125, 0.125, 0.125
93, 0.25, 0.125, 0.125
94, 0.375, 0.125, 0.125
95, 0.5, 0.125, 0.125
96, 0.625, 0.125, 0.125
97, 0.75, 0.125, 0.125
98, 0.875, 0.125, 0.125
99, 1, 0.125, 0.125
100, 0, 0.25, 0.125
101, 0.125, 0.25, 0.125
102, 0.25, 0.25, 0.125
103, 0.375, 0.25, 0.125
104, 0.5, 0.25, 0.125
105, 0.625, 0.25, 0.125
106, 0.75, 0.25, 0.125
107, 0.875, 0.25, 0.125
108, 1, 0.25, 0.125
109, 0, 0.375, 0.125
110, 0.125, 0.375, 0.125
111, 0.25, 0.375, 0.125
112, 0.375, 0.375, 0.125
113, 0.5, 0.375, 0.125
114, 0.625, 0.375, 0.125
115, 0.75, 0.375, 0.125
116, 0.875, 0.375, 0.125
117, 1, 0.375, 0.125
118, 0, 0.5, 0.125
119, 0.125, 0.5, 0.125
120, 0.25, 0.5, 0.125
121, 0.375, 0.5, 0.125
122, 0.5, 0.5, 0.125
123, 0.625, 0.5, 0.125
124, 0.75, 0.5, 0.125
125, 0.875, 0.5, 0.125
126, 1, 0.5, 0.125
127, 0, 0.625, 0.125
128, 0.125, 0.625, 0.125
129, 0.25, 0.625, 0.125
130, 0.375, 0.625, 0.125
131, 0.5, 0.625, 0.125
132, 0.625, 0.625, 0.125
133, 0.75, 0.625, 0.125
134, 0.875, 0.625, 0.125
135, 1, 0.625, 0.125
136, 0, 0.75, 0.125
137, 0.125, 0.75, 0.125
138, 0.25, 0.75, 0.125
139, 0.375, 0.75, 0.125
140, 0.5, 0.75, 0.125
141, 0.625, 0.75, 0.125
142, 0.75, 0.75, 0.125
143, 0.875, 0.75, 0.125
144, 1, 0.75, 0.125
145, 0, 0.875, 0.125
146, 0.125, 0.875, 0.125
147, 0.25, 0.875, 0.125
148, 0.375, 0.875, 0.125
149, 0.5, 0.875, 0.125
150, 0.625, 0.875, 0.125
151, 0.75, 0.875, 0.125
152, 0.875, 0.875, 0.125
153, 1, 0.875, 0.125
154, 0, 1, 0.125
155, 0.125, 1, 0.125
156, 0.25, 1, 0.125
157, 0.375, 1, 0.125
158, 0.5, 1, 0.125
159, 0.625, 1, 0.125
160, 0.75, 1, 0.125
161, 0.875, 1, 0.125
162, 1, 1, 0.125
163, 0, 0, 0.25
164, 0.125, 0, 0.25
165, 0.25, 0, 0.25
166, 0.375, 0, 0.25
167, 0.5, 0, 0.25
168, 0.625, 0, 0.25
169, 0.75, 0, 0.25
170, 0.875, 0, 0.25
171, 1, 0, 0.25
172, 0, 0.125, 0.25
173, 0.125, 0.125, 0.25
174, 0.25, 0.125, 0.25
175, 0.375, 0.125, 0.25
176, 0.5, 0.125, 0.25
177, 0.625, 0.125, 0.25
178, 0.75, 0.125, 0.25
179, 0.875, 0.125, 0.25
180, 1, 0.125, 0.25
181, 0, 0.25, 0.25
182, 0.125, 0.25, 0.25
183, 0.25, 0.25, 0.25
184, 0.375, 0.25, 0.25
185, 0.5, 0.25, 0.25
186, 0.625, 0.25, 0.25
187, 0.75, 0.25, 0.25
188, 0.875, 0.25, 0.25
189, 1, 0.25, 0.25
190, 0, 0.375, 0.25
191, 0.125, 0.375, 0.25
192, 0.25, 0.375, 0.25
193, 0.375, 0.375, 0.25
194, 0.5, 0.375, 0.25
195, 0.625, 0.375, 0.25
196, 0.75, 0.375, 0.25
197, 0.875, 0.375, 0.25
198, 1, 0.375, 0.25
199, 0, 0.5, 0.25
200, 0.125, 0.5, 0.25
201, 0.25, 0.5, 0.25
202, 0.375, 0.5, 0.25
203, 0.5, 0.5, 0.25
204, 0.625, 0.5, 0.25
205, 0.75, 0.5, 0.25
206, 0.875, 0.5, 0.25
207, 1, 0.5, 0.25
208, 0, 0.625, 0.25
209, 0.125, 0.625, 0.25
210, 0.25, 0.625, 0.25
211, 0.375, 0.625, 0.25
212, 0.5, 0.625, 0.25
213, 0.625, 0.625, 0.25
214, 0.75, 0.625, 0.25
215, 0.875, 0.625, 0.25
216, 1, 0.625, 0.25
217, 0, 0.75, 0.25
218, 0.125, 0.75, 0.25
219, 0.25, 0.75, 0.25
220, 0.375, 0.75, 0.25
221, 0.5, 0.75, 0.25
222, 0.625, 0.75, 0.25
223, 0.75, 0.75, 0.25
224, 0.875, 0.75, 0.25
225, 1, 0.75, 0.25
226, 0, 0.875, 0.25
227, 0.125, 0.875, 0.25
228, 0.25, 0.875, 0.25
229, 0.375, 0.875, 0.25
230, 0.5, 0.875, 0.25
231, 0.625, 0.875, 0.25
232, 0.75, 0.875, 0.25
233, 0.875, 0.875, 0.25
234, 1, 0.875, 0.25
235, 0, 1, 0.25
236, 0.125, 1, 0.25
237, 0.25, 1, 0.25
238, 0.375, 1, 0.25
239, 0.5, 1, 0.25
240, 0.625, 1, 0.25
241, 0.75, 1, 0.25
242, 0.875, 1, 0.25
243, 1, 1, 0.25
244, 0, 0, 0.375
245, 0.125, 0, 0.375
246, 0.25, 0, 0.375
247, 0.375, 0, 0.375
248, 0.5, 0, 0.375
249, 0.625, 0, 0.375
250, 0.75, 0, 0.375
251, 0.875, 0, 0.375
252, 1, 0, 0.375
253, 0, 0.125, 0.375
254, 0.125, 0.125, 0.375
255, 0.25, 0.125, 0.375
256, 0.375, 0.125, 0.375
257, 0.5, 0.125, 0.375
258, 0.625, 0.125, 0.375
259, 0.75, 0.125, 0.375
260, 0.875, 0.125, 0.375
261, 1, 0.125, 0.375
262, 0, 0.25, 0.375
263, 0.125, 0.25, 0.375
264, 0.25, 0.25, 0.375
265, 0.375, 0.25, 0.375
266, 0.5, 0.25, 0.375
267, 0.625, 0.25, 0.375
268, 0.75, 0.25, 0.375
269, 0.875, 0.25, 0.375
270, 1, 0.25, 0.375
271, 0, 0.375, 0.375
272, 0.125, 0.375, 0.375
273, 0.25, 0.375, 0.375
274, 0.375, 0.375, 0.375
275, 0.5, 0.375, 0.375
276, 0.625, 0.375, 0.375
277, 0.75, 0.375, 0.375
278, 0.875, 0.375, 0.375
279, 1, 0.375, 0.375
280, 0, 0.5, 0.375
281, 0.125, 0.5, 0.375
282, 0.25, 0.5, 0.375
283, 0.375, 0.5, 0.375
284, 0.5, 0.5, 0.375
285, 0.625, 0.5, 0.375
286, 0.75, 0.5, 0.375
287, 0.875, 0.5, 0.375
288, 1, 0.5, 0.375
289, 0, 0.625, 0.375
290, 0.125, 0.625, 0.375
291, 0.25, 0.625, 0.375
292, 0.375, 0.625, 0.375
293, 0.5, 0.625, 0.375
294, 0.625, 0.625, 0.375
295, 0.75, 0.625, 0.375
296, 0.875, 0.625, 0.375
297, 1, 0.625, 0.375
298, 0, 0.75, 0.375
299, 0.125, 0.75, 0.375
300, 0.25, 0.75, 0.375
301, 0.375, 0.75, 0.375
302, 0.5, 0.75, 0.375
303, 0.625, 0.75, 0.375
304, 0.75, 0.75, 0.375
305, 0.875, 0.75, 0.375
306, 1, 0.75, 0.375
307, 0, 0.875, 0.375
308, 0.125, 0.875, 0.375
309, 0.25, 0.875, 0.375
310, 0.375, 0.875, 0.375
311, 0.5, 0.875, 0.375
312, 0.625, 0.875, 0.375
313, 0.75, 0.875, 0.375
314, 0.875, 0.875, 0.375
315, 1, 0.875, 0.375
316, 0, 1, 0.375
317, 0.125, 1, 0.375
318, 0.25, 1, 0.375
319, 0.375, 1, 0.375
320, 0.5, 1, 0.375
321, 0.625, 1, 0.375
322, 0.75, 1, 0.375
323, 0.875, 1, 0.375
324, 1, 1, 0.375
325, 0, 0, 0.5
326, 0.125, 0, 0.5
327, 0.25, 0, 0.5
328, 0.375, 0, 0.5
329, 0.5, 0, 0.5
330, 0.625, 0, 0.5
331, 0.75, 0, 0.5
332, 0.875, 0, 0.5
333, 1, 0, 0.5
334, 0, 0.125, 0.5
335, 0.125, 0.125, 0.5
336, 0.25, 0.125, 0.5
337, 0.375, 0.125, 0.5
338, 0.5, 0.125, 0.5
339, 0.625, 0.125, 0.5
340, 0.75, 0.125, 0.5
341, 0.875, 0.125, 0.5
342, 1, 0.125, 0.5
343, 0, 0.25, 0.5
344, 0.125, 0.25, 0.5
345, 0.25, 0.25, 0.5
346, 0.375, 0.25, 0.5
347, 0.5, 0.25, 0.5
348, 0.625, 0.25, 0.5
349, 0.75, 0.25, 0.5
350, 0.875, 0.25, 0.5
351, 1, 0.25, 0.5
352, 0, 0.375, 0.5
353, 0.125, 0.375, 0.5
354, 0.25, 0.375, 0.5
355, 0.375, 0.375, 0.5
356, 0.5, 0.375, 0.5
357, 0.625, 0.375, 0.5
358, 0.75, 0.375, 0.5
359, 0.875, 0.375, 0.5
360, 1, 0.375, 0.5
361, 0, 0.5, 0.5
362, 0.125, 0.5, 0.5
363, 0.25, 0.5, 0.5
364, 0.375, 0.5, 0.5
365, 0.5, 0.5, 0.5
366, 0.625, 0.5, 0.5
367, 0.75, 0.5, 0.5
368, 0.875, 0.5, 0.5
369, 1, 0.5, 0.5
370, 0, 0.625, 0.5
371, 0.125, 0.625, 0.5
372, 0.25, 0.625, 0.5
373, 0.375, 0.625, 0.5
374, 0.5, 0.625, 0.5
375, 0.625, 0.625, 0.5
376, 0.75, 0.625, 0.5
377, 0.875, 0.625, 0.5
378, 1, 0.625, 0.5
379, 0, 0.75, 0.5
380, 0.125, 0.75, 0.5
381, 0.25, 0.75, 0.5
382, 0.375, 0.75, 0.5
383, 0.5, 0.75, 0.5
384, 0.625, 0.75, 0.5
385, 0.75, 0.75, 0.5
386, 0.875, 0.75, 0.5
387, 1, 0.75, 0.5
388, 0, 0.875, 0.5
389, 0.125, 0.875, 0.5
390, 0.25, 0.875, 0.5
391, 0.375, 0.875, 0.5
392, 0.5, 0.875, 0.5
393, 0.625, 0.875, 0.5
394, 0.75, 0.875, 0.5
395, 0.875, 0.875, 0.5
396, 1, 0.875, 0.5
397, 0, 1, 0.5
398, 0.125, 1, 0.5
399, 0.25, 1, 0.5
400, 0.375, 1, 0.5
401, 0.5, 1, 0.5
402, 0.625, 1, 0.5
403, 0.75, 1, 0.5
404, 0.875, 1, 0.5
405, 1, 1, 0.5
406, 0, 0, 0.625
407, 0.125, 0, 0.625
408, 0.25, 0, 0.625
409, 0.375, 0, 0.625
410, 0.5, 0, 0.625
411, 0.625, 0, 0.625
412, 0.75, 0, 0.625
413, 0.875, 0, 0.625
414, 1, 0, 0.625
415, 0, 0.125, 0.625
416, 0.125, 0.125, 0.625
417, 0.25, 0.125, 0.625
418, 0.375, 0.125, 0.625
419, 0.5, 0.125, 0.625
420, 0.625, 0.125, 0.625
421, 0.75, 0.125, 0.625
422, 0.875, 0.125, 0.625
423, 1, 0.125, 0.625
424, 0, 0.25, 0.625
425, 0.125, 0.25, 0.625
426, 0.25, 0.25, 0.625
427, 0.375, 0.25, 0.625
428, 0.5, 0.25, 0.625
429, 0.625, 0.25, 0.625
430, 0.75, 0.25, 0.625
431, 0.875, 0.25, 0.625
432, 1, 0.25, 0.625
433, 0, 0.375, 0.625
434, 0.125, 0.375, 0.625
435, 0.25, 0.375, 0.625
436, 0.375, 0.375, 0.625
437, 0.5, 0.375, 0.625
438, 0.625, 0.375, 0.625
439, 0.75, 0.375, 0.625
440, 0.875, 0.375, 0.625
441, 1, 0.375, 0.625
442, 0, 0.5, 0.625
443, 0.125, 0.5, 0.625
444, 0.25, 0.5, 0.625
445, 0.375, 0.5, 0.625
446, 0.5, 0.5, 0.625
447, 0.625, 0.5, 0.625
448, 0.75, 0.5, 0.625
449, 0.875, 0.5, 0.625
450, 1, 0.5, 0.625
451, 0, 0.625, 0.625
452, 0.125, 0.625, 0.625
453, 0.25, 0.625, 0.625
454, 0.375, 0.625, 0.625
455, 0.5, 0.625, 0.625
456, 0.625, 0.625, 0.625
457, 0.75, 0.625, 0.625
458, 0.875, 0.625, 0.625
459, 1, 0.625, 0.625
460, 0, 0.75, 0.625
461, 0.125, 0.75, 0.625
462, 0.25, 0.75, 0.625
463, 0.375, 0.75, 0.625
464, 0.5, 0.75, 0.625
465, 0.625, 0.75, 0.625
466, 0.75, 0.75, 0.625
467, 0.875, 0.75, 0.625
468, 1, 0.75, 0.625
469, 0, 0.875, 0.625
470, 0.125, 0.875, 0.625
471, 0.25, 0.875, 0.625
472, 0.375, 0.875, 0.625
473, 0.5, 0.875, 0.625
474, 0.625, 0.875, 0.625
475, 0.75, 0.875, 0.625
476, 0.875, 0.875, 0.625
477, 1, 0.875, 0.625
478, 0, 1, 0.625
479, 0.125, 1, 0.625
480, 0.25, 1, 0.625
481, 0.375, 1, 0.625
482, 0.5, 1, 0.625
483, 0.625, 1, 0.625
484, 0.75, 1, 0.625
485, 0.875, 1, 0.625
486, 1, 1, 0.625
487, 0, 0, 0.75
488, 0.125, 0, 0.75
489, 0.25, 0, 0.75
490, 0.375, 0, 0.75
491, 0.5, 0, 0.75
492, 0.625, 0, 0.75
493, 0.75, 0, 0.75
494, 0.875, 0, 0.75
495, 1, 0, 0.75
496, 0, 0.125, 0.75
497, 0.125, 0.125, 0.75
498, 0.25, 0.125, 0.75
499, 0.375, 0.125, 0.75
500, 0.5, 0.125, 0.75
501, 0.625, 0.125, 0.75
502, 0.75, 0.125, 0.75
503, 0.875, 0.125, 0.75
504, 1, 0.125, 0.75
505, 0, 0.25, 0.75
506, 0.125, 0.25, 0.75
507, 0.25, 0.25, 0.75
508, 0.375, 0.25, 0.75
509, 0.5, 0.25, 0.75
510, 0.625, 0.25, 0.75
511, 0.75, 0.25, 0.75
512, 0.875, 0.25, 0.75
513, 1, 0.25, 0.75
514, 0, 0.375, 0.75
515, 0.125, 0.375, 0.75
516, 0.25, 0.375, 0.75
517, 0.375, 0.375, 0.75
518, 0.5, 0.375, 0.75
519, 0.625, 0.375, 0.75
520, 0.75, 0.375, 0.75
521, 0.875, 0.375, 0.75
522, 1, 0.375, 0.75
523, 0, 0.5, 0.75
524, 0.125, 0.5, 0.75
525, 0.25, 0.5, 0.75
526, 0.375, 0.5, 0.75
527, 0.5, 0.5, 0.75
528, 0.625, 0.5, 0.75
529, 0.75, 0.5, 0.75
530, 0.875, 0.5, 0.75
531, 1, 0.5, 0.75
532, 0, 0.625, 0.75
533, 0.125, 0.625, 0.75
534, 0.25, 0.625, 0.75
535, 0.375, 0.625, 0.75
536, 0.5, 0.625, 0.75
537, 0.625, 0.625, 0.75
538, 0.75, 0.625, 0.75
539, 0.875, 0.625, 0.75
540, 1, 0.625, 0.75
541, 0, 0.75, 0.75
542, 0.125, 0.75, 0.75
543, 0.25, 0.75, 0.75
544, 0.375, 0.75, 0.75
545, 0.5, 0.75, 0.75
546, 0.625, 0.75, 0.75
547, 0.75, 0.75, 0.75
548, 0.875, 0.75, 0.75
549, 1, 0.75, 0.75
550, 0, 0.875, 0.75
551, 0.125, 0.875, 0.75
552, 0.25, 0.875, 0.75
553, 0.375, 0.875, 0.75
554, 0.5, 0.875, 0.75
555, 0.625, 0.875, 0.75
556, 0.75, 0.875, 0.75
557, 0.875, 0.875, 0.75
558, 1, 0.875, 0.75
559, 0, 1, 0.75
560, 0.125, 1, 0.75
561, 0.25, 1, 0.75
562, 0.375, 1, 0.75
563, 0.5, 1, 0.75
564, 0.625, 1, 0.75
565, 0.75, 1, 0.75
566, 0.875, 1, 0.75
567, 1, 1, 0.75
568, 0, 0, 0.875
569, 0.125, 0, 0.875
570, 0.25, 0, 0.875
571, 0.375, 0, 0.875
572, 0.5, 0, 0.875
573, 0.625, 0, 0.875
574, 0.75, 0, 0.875
575, 0.875, 0, 0.875
576, 1, 0, 0.875
577, 0, 0.125, 0.875
578, 0.125, 0.125, 0.875
579, 0.25, 0.125, 0.875
580, 0.375, 0.125, 0.875
581, 0.5, 0.125, 0.875
582, 0.625, 0.125, 0.875
583, 0.75, 0.125, 0.875
584, 0.875, 0.125, 0.875
585, 1, 0.125, 0.875
586, 0, 0.25, 0.875
587, 0.125, 0.25, 0.875
588, 0.25, 0.25, 0.875
589, 0.375, 0.25, 0.875
590, 0.5, 0.25, 0.875
591, 0.625, 0.25, 0.875
592, 0.75, 0.25, 0.875
593, 0.875, 0.25, 0.875
594, 1, 0.25, 0.875
595, 0, 0.375, 0.875
596, 0.125, 0.375, 0.875
597, 0.25, 0.375, 0.875
598, 0.375, 0.375, 0.875
599, 0.5, 0.375, 0.875
600, 0.625, 0.375, 0.875
601, 0.75, 0.375, 0.875
602, 0.875, 0.375, 0.875
603, 1, 0.375, 0.875
604, 0, 0.5, 0.875
605, 0.125, 0.5, 0.875
606, 0.25, 0.5, 0.875
607, 0.375, 0.5, 0.875
608, 0.5, 0.5, 0.875
609, 0.625, 0.5, 0.875
610, 0.75, 0.5, 0.875
611, 0.875, 0.5, 0.875
612, 1, 0.5, 0.875
613, 0, 0.625, 0.875
614, 0.125, 0.625, 0.875
615, 0.25, 0.625, 0.875
616, 0.375, 0.625, 0.875
617, 0.5, 0.625, 0.875
618, 0.625, 0.625, 0.875
619, 0.75, 0.625, 0.875
620, 0.875, 0.625, 0.875
621, 1, 0.625, 0.875
622, 0, 0.75, 0.875
623, 0.125, 0.75, 0.875
624, 0.25, 0.75, 0.875
625, 0.375, 0.75, 0.875
626, 0.5, 0.75, 0.875
627, 0.625, 0.75, 0.875
628, 0.75, 0.75, 0.875
629, 0.875, 0.75, 0.875
630, 1, 0.75, 0.875
631, 0, 0.875, 0.875
632, 0.125, 0.875, 0.875
633, 0.25, 0.875, 0.875
634, 0.375, 0.875, 0.875
635, 0.5, 0.875, 0.875
636, 0.625, 0.875, 0.875
637, 0.75, 0.875, 0.875
638, 0.875, 0.875, 0.875
639, 1, 0.875, 0.875
640, 0, 1, 0.875
641, 0.125, 1, 0.875
642, 0.25, 1, 0.875
643, 0.375, 1, 0.875
644, 0.5, 1, 0.875
645, 0.625, 1, 0.875
646, 0.75, 1, 0.875
647, 0.875, 1, 0.875
648, 1, 1, 0.875
649, 0, 0, 1
650, 0.125, 0, 1
651, 0.25, 0, 1
652, 0.375, 0, 1
653, 0.5, 0, 1
654, 0.625, 0, 1
655, 0.75, 0, 1
656, 0.875, 0, 1
657, 1, 0, 1
658, 0, 0.125, 1
659, 0.125, 0.125, 1
660, 0.25, 0.125, 1
661, 0.375, 0.125, 1
662, 0.5, 0.125, 1
663, 0.625, 0.125, 1
664, 0.75, 0.125, 1
665, 0.875, 0.125, 1
666, 1, 0.125, 1
667, 0, 0.25, 1
668, 0.125, 0.25, 1
669, 0.25, 0.25, 1
670, 0.375, 0.25, 1
671, 0.5, 0.25, 1
672, 0.625, 0.25, 1
673, 0.75, 0.25, 1
674, 0.875, 0.25, 1
675, 1, 0.25, 1
676, 0, 0.375, 1
677, 0.125, 0.375, 1
678, 0.25, 0.375, 1
679, 0.375, 0.375, 1
680, 0.5, 0.375, 1
681, 0.625, 0.375, 1
682, 0.75, 0.375, 1
683, 0.875, 0.375, 1
684, 1, 0.375, 1
685, 0, 0.5, 1
686, 0.125, 0.5, 1
687, 0.25, 0.5, 1
688, 0.375, 0.5, 1
689, 0.5, 0.5, 1
690, 0.625, 0.5, 1
691, 0.75, 0.5, 1
692, 0.875, 0.5, 1
693, 1, 0.5, 1
694, 0, 0.625, 1
695, 0.125, 0.625, 1
696, 0.25, 0.625, 1
697, 0.375, 0.625, 1
698, 0.5, 0.625, 1
699, 0.625, 0.625, 1
700, 0.75, 0.625, 1
701, 0.875, 0.625, 1
702, 1, 0.625, 1
703, 0, 0.75, 1
704, 0.125, 0.75, 1
705, 0.25, 0.75, 1
706, 0.375, 0.75, 1
707, 0.5, 0.75, 1
708, 0.625, 0.75, 1
709, 0.75, 0.75, 1
710, 0.875, 0.75, 1
711, 1, 0.75, 1
712, 0, 0.875, 1
713, 0.125, 0.875, 1
714, 0.25, 0.875, 1
715, 0.375, 0.875, 1
716, 0.5, 0.875, 1
717, 0.625, 0.875, 1
718, 0.75, 0.875, 1
719, 0.875, 0.875, 1
720, 1, 0.875, 1
721, 0, 1, 1
722, 0.125, 1, 1
723, 0.25, 1, 1
724, 0.375, 1, 1
725, 0.5, 1, 1
726, 0.625, 1, 1
727, 0.75, 1, 1
728, 0.875, 1, 1
729, 1, 1, 1
*ELEMENT, TYPE=C3D8, ELSET=EALL
1, 1, 2, 11, 10, 82, 83, 92, 91
2, 2, 3, 12, 11, 83, 84, 93, 92
3, 3, 4, 13, 12, 84, 85, 94, 93
4, 4, 5, 14, 13, 85, 86, 95, 94
5, 5, 6, 15, 14, 86, 87, 96, 95
6, 6, 7, 16, 15, 87, 88, 97, 96
7, 7, 8, 17, 16, 88, 89, 98, 97
8, 8, 9, 18, 17, 89, 90, 99, 98
9, 10, 11, 20, 19, 91, 92, 101, 100
10, 11, 12, 21, 20, 92, 93, 102, 101
11, 12, 13, 22, 21, 93, 94, 103, 102
12, 13, 14, 23, 22, 94, 95, 104, 103
13, 14, 15, 24, 23, 95, 96, 105, 104
14, 15, 16, 25, 24, 96, 97, 106, 105
15, 16, 17, 26, 25, 97, 98, 107, 106
16, 17, 18, 27, 26, 98, 99, 108, 107
17, 19, 20, 29, 28, 100, 101, 110, 109
18, 20, 21, 30, 29, 101, 102, 111, 110
19, 21, 22, 31, 30, 102, 103, 112, 111
20, 22, 23, 32, 31, 103, 104, 113, 112
21, 23, 24, 33, 32, 104, 105, 114, 113
22, 24, 25, 34, 33, 105, 106, 115, 114
23, 25, 26, 35, 34, 106, 107, 116, 115
24, 26, 27, 36, 35, 107, 108, 117, 116
25, 28, 29, 38, 37, 109, 110, 119, 118
26, 29, 30, 39, 38, 110, 111, 120, 119
27, 30, 31, 40, 39, 111, 112, 121, 120
28, 31, 32, 41, 40, 112, 113, 122, 121
29, 32, 33, 42, 41, 113, 114, 123, 122
30, 33, 34, 43, 42, 114, 115, 124, 123
31, 34, 35, 44, 43, 115, 116, 125, 124
32, 35, 36, 45, 44, 116, 117, 126, 125
33, 37, 38, 47, 46, 118, 119, 128, 127
34, 38, 39, 48, 47, 119, 120, 129, 128
35, 39, 40, 49, 48, 120, 121, 130, 129
36, 40, 41, 50, 49, 121, 122, 131, 130
37, 41, 42, 51, 50, 122, 123, 132, 131
38, 42, 43, 52, 51, 123, 124, 133, 132
39, 43, 44, 53, 52, 124, 125, 134, 133
40, 44, 45, 54, 53, 125, 126, 135, 134
41, 46, 47, 56, 55, 127, 128, 137, 136
42, 47, 48, 57, 56, 128, 129, 138, 137
43, 48, 49, 58, 57, 129, 130, 139, 138
44, 49, 50, 59, 58, 130, 131, 140, 139
45, 50, 51, 60, 59, 131, 132, 141, 140
46, 51, 52, 61, 60, 132, 133, 142, 141
47, 52, 53, 62, 61, 133, 134, 143, 142
48, 53, 54, 63, 62, 134, 135, 144, 143
49, 55, 56, 65, 64, 136, 137, 146, 145
50, 56, 57, 66, 65, 137, 138, 147, 146
51, 57, 58, 67, 66, 138, 139, 148, 147
52, 58, 59, 68, 67, 139, 140, 149, 148
53, 59, 60, 69, 68, 140, 141, 150, 149
54, 60, 61, 70, 69, 141, 142, 151, 150
55, 61, 62, 71, 70, 142, 143, 152, 151
56, 62, 63, 72, 71, 143, 144, 153, 152
57, 64, 65, 74, 73, 145, 146, 155, 154
58, 65, 66, 75, 74, 146, 147, 156, 155
59, 66, 67, 76, 75, 147, 148, 157, 156
60, 67, 68, 77, 76, 148, 149, 158, 157
61, 68, 69, 78, 77, 149, 150, 159, 158
62, 69, 70, 79, 78, 150, 151, 160, 159
63, 70, 71, 80, 79, 151, 152, 161, 160
64, 71, 72, 81, 80, 152, 153, 162, 161
65, 82, 83, 92, 91, 163, 164, 173, 172
66, 83, 84, 93, 92, 164, 165, 174, 173
67, 84, 85, 94, 93, 165, 166, 175, 174
68, 85, 86, 95, 94, 166, 167, 176, 175
69, 86, 87, 96, 95, 167, 168, 177, 176
70, 87, 88, 97, 96, 168, 169, 178, 177
71, 88, 89, 98, 97, 169, 170, 179, 178
72, 89, 90, 99, 98, 170, 171, 180, 179
73, 91, 92, 101, 100, 172, 173, 182, 181
74, 92, 93, 102, 101, 173, 174, 183, 182
75, 93, 94, 103, 102, 174, 175, 184, 183
76, 94, 95, 104, 103, 175, 176, 185, 184
77, 95, 96, 105, 104, 176, 177, 186, 185
78, 96, 97, 106, 105, 177, 178, 187, 186
79, 97, 98, 107, 106, 178, 179, 188, 187
80, 98, 99, 108, 107, 179, 180, 189, 188
81, 100, 101, 110, 109, 181, 182, 191, 190
82, 101, 102, 111, 110, 182, 183, 192, 191
83, 102, 103, 112, 111, 183, 184, 193, 192
84, 103, 104, 113, 112, 184, 185, 194, 193
85, 104, 105, 114, 113, 185, 186, 195, 194
86, 105, 106, 115, 114, 186, 187, 196, 195
87, 106, 107, 116, 115, 187, 188, 197, 196
88, 107, 108, 117, 116, 188, 189, 198, 197
89, 109, 110, 119, 118, 190, 191, 200, 199
90, 110, 111, 120, 119, 191, 192, 201, 200
91, 111, 112, 121, 120, 192, 193, 202, 201
92, 112, 113, 122, 121, 193, 194, 203, 202
93, 113, 114, 123, 122, 194, 195, 204, 203
94, 114, 115, 124, 123, 195, 196, 205, 204
95, 115, 116, 125, 124, 196, 197, 206, 205
96, 116, 117, 126, 125, 197, 198, 207, 206
97, 118, 119, 128, 127, 199, 200, 209, 208
98, 119, 120, 129, 128, 200, 201, 210, 209
99, 120, 121, 130, 129, 201, 202, 211, 210
100, 121, 122, 131, 130, 202, 203, 212, 211
101, 122, 123, 132, 131, 203, 204, 213, 212
102, 123, 124, 133, 132, 204, 205, 214, 213
103, 124, 125, 134, 133, 205, 206, 215, 214
104, 125, 126, 135, 134, 206, 207, 216, 215
105, 127, 128, 137, 136, 208, 209, 218, 217
106, 128, 129, 138, 137, 209, 210, 219, 218
107, 129, 130, 139, 138, 210, 211, 220, 219
108, 130, 131, 140, 139, 211, 212, 221, 220
109, 131, 132, 141, 140, 212, 213, 222, 221
110, 132, 133, 142, 141, 213, 214, 223, 222
111, 133, 134, 143, 142, 214, 215, 224, 223
112, 134, 135, 144, 143, 215, 216, 225, 224
113, 136, 137, 146, 145, 217, 218, 227, 226
114, 137, 138, 147, 146, 218, 219, 228, 227
115, 138, 139, 148, 147, 219, 220, 229, 228
116, 139, 140, 149, 148, 220, 221, 230, 229
117, 140, 141, 150, 149, 221, 222, 231, 230
118, 141, 142, 151, 150, 222, 223, 232, 231
119, 142, 143, 152, 151, 223, 224, 233, 232
120, 143, 144, 153, 152, 224, 225, 234, 233
121, 145, 146, 155, 154, 226, 227, 236, 235
122, 146, 147, 156, 155, 227, 228, 237, 236
123, 147, 148, 157, 156, 228, 229, 238, 237
124, 148, 149, 158, 157, 229, 230, 239, 238
125, 149, 150, 159, 158, 230, 231, 240, 239
126, 150, 151, 160, 159, 231, 232, 241, 240
127, 151, 152, 161, 160, 232, 233, 242, 241
128, 152, 153, 162, 161, 233, 234, 243, 242
129, 163, 164, 173, 172, 244, 245, 254, 253
130, 164, 165, 174, 173, 245, 246, 255, 254
131, 165, 166, 175, 174, 246, 247, 256, 255
132, 166, 167, 176, 175, 247, 248, 257, 256
133, 167, 168, 177, 176, 248, 249, 258, 257
134, 168, 169, 178, 177, 249, 250, 259, 258
135, 169, 170, 179, 178, 250, 251, 260, 259
136, 170, 171, 180, 179, 251, 252, 261, 260
137, 172, 173, 182, 181, 253, 254, 263, 262
138, 173, 174, 183, 182, 254, 255, 264, 263
139, 174, 175, 184, 183, 255, 256, 265, 264
140, 175, 176, 185, 184, 256, 257, 266, 265
141, 176, 177, 186, 185, 257, 258, 267, 266
142, 177, 178, 187, 186, 258, 259, 268, 267
143, 178, 179, 188, 187, 259, 260, 269, 268
144, 179, 180, 189, 188, 260, 261, 270, 269
145, 181, 182, 191, 190, 262, 263, 272, 271
146, 182, 183, 192, 191, 263, 264, 273, 272
147, 183, 184, 193, 192, 264, 265, 274, 273
148, 184, 185, 194, 193, 265, 266, 275, 274
149, 185, 186, 195, 194, 266, 267, 276, 275
150, 186, 187, 196, 195, 267, 268, 277, 276
151, 187, 188, 197, 196, 268, 269, 278, 277
152, 188, 189, 198, 197, 269, 270, 279, 278
153, 190, 191, 200, 199, 271, 272, 281, 280
154, 191, 192, 201, 200, 272, 273, 282, 281
155, 192, 193, 202, 201, 273, 274, 283, 282
156, 193, 194, 203, 202, 274, 275, 284, 283
157, 194, 195, 204, 203, 275, 276, 285, 284
158, 195, 196, 205, 204, 276, 277, 286, 285
159, 196, 197, 206, 205, 277, 278, 287, 286
160, 197, 198, 207, 206, 278, 279, 288, 287
161, 199, 200, 209, 208, 280, 281, 290, 289
162, 200, 201, 210, 209, 281, 282, 291, 290
163, 201, 202, 211, 210, 282, 283, 292, 291
164, 202, 203, 212, 211, 283, 284, 293, 292
165, 203, 204, 213, 212, 284, 285, 294, 293
166, 204, 205, 214, 213, 285, 286, 295, 294
167, 205, 206, 215, 214, 286, 287, 296, 295
168, 206, 207, 216, 215, 287, 288, 297, 296
169, 208, 209, 218, 217, 289, 290, 299, 298
170, 209, 210, 219, 218, 290, 291, 300, 299
171, 210, 211, 220, 219, 291, 292, 301, 300
172, 211, 212, 221, 220, 292, 293, 302, 301
173, 212, 213, 222, 221, 293, 294, 303, 302
174, 213, 214, 223, 222, 294, 295, 304, 303
175, 214, 215, 224, 223, 295, 296, 305, 304
176, 215, 216, 225, 224, 296, 297, 306, 305
177, 217, 218, 227, 226, 298, 299, 308, 307
178, 218, 219, 228, 227, 299, 300, 309, 308
179, 219, 220, 229, 228, 300, 301, 310, 309
180, 220, 221, 230, 229, 301, 302, 311, 310
181, 221, 222, 231, 230, 302, 303, 312, 311
182, 222, 223, 232, 231, 303, 304, 313, 312
183, 223, 224, 233, 232, 304, 305, 314, 313
184, 224, 225, 234, 233, 305, 306, 315, 314
185, 226, 227, 236, 235, 307, 308, 317, 316
186, 227, 228, 237, 236, 308, 309, 318, 317
187, 228, 229, 238, 237, 309, 310, 319, 318
188, 229, 230, 239, 238, 310, 311, 320, 319
189, 230, 231, 240, 239, 311, 312, 321, 320
190, 231, 232, 241, 240, 312, 313, 322, 321
191, 232, 233, 242, 241, 313, 314, 323, 322
192, 233, 234, 243, 242, 314, 315, 324, 323
193, 244, 245, 254, 253, 325, 326, 335, 334
194, 245, 246, 255, 254, 326, 327, 336, 335
195, 246, 247, 256, 255, 327, 328, 337, 336
196, 247, 248, 257, 256, 328, 329, 338, 337
197, 248, 249, 258, 257, 329, 330, 339, 338
198, 249, 250, 259, 258, 330, 331, 340, 339
199, 250, 251, 260, 259, 331, 332, 341, 340
200, 251, 252, 261, 260, 332, 333, 342, 341
201, 253, 254, 263, 262, 334, 335, 344, 343
202, 254, 255, 264, 263, 335, 336, 345, 344
203, 255, 256, 265, 264, 336, 337, 346, 345
204, 256, 257, 266, 265, 337, 338, 347, 346
205, 257, 258, 267, 266, 338, 339, 348, 347
206, 258, 259, 268, 267, 339, 340, 349, 348
207, 259, 260, 269, 268, 340, 341, 350, 349
208, 260, 261, 270, 269, 341, 342, 351, 350
209, 262, 263, 272, 271, 343, 344, 353, 352
210, 263, 264, 273, 272, 344, 345, 354, 353
211, 264, 265, 274, 273, 345, 346, 355, 354
212, 265, 266, 275, 274, 346, 347, 356, 355
213, 266, 267, 276, 275, 347, 348, 357, 356
214, 267, 268, 277, 276, 348, 349, 358, 357
215, 268, 269, 278, 277, 349, 350, 359, 358
216, 269, 270, 279, 278, 350, 351, 360, 359
217, 271, 272, 281, 280, 352, 353, 362, 361
218, 272, 273, 282, 281, 353, 354, 363, 362
219, 273, 274, 283, 282, 354, 355, 364, 363
220, 274, 275, 284, 283, 355, 356, 365, 364
221, 275, 276, 285, 284, 356, 357, 366, 365
222, 276, 277, 286, 285, 357, 358, 367, 366
223, 277, 278, 287, 286, 358, 359, 368, 367
224, 278, 279, 288, 287, 359, 360, 369, 368
225, 280, 281, 290, 289, 361, 362, 371, 370
226, 281, 282, 291, 290, 362, 363, 372, 371
227, 282, 283, 292, 291, 363, 364, 373, 372
228, 283, 284, 293, 292, 364, 365, 374, 373
229, 284, 285, 294, 293, 365, 366, 375, 374
230, 285, 286, 295, 294, 366, 367, 376, 375
231, 286, 287, 296, 295, 367, 368, 377, 376
232, 287, 288, 297, 296, 368, 369, 378, 377
233, 289, 290, 299, 298, 370, 371, 380, 379
234, 290, 291, 300, 299, 371, 372, 381, 380
235, 291, 292, 301, 300, 372, 373, 382, 381
236, 292, 293, 302, 301, 373, 374, 383, 382
237, 293, 294, 303, 302, 374, 375, 384, 383
238, 294, 295, 304, 303, 375, 376, 385, 384
239, 295, 296, 305, 304, 376, 377, 386, 385
240, 296, 297, 306, 305, 377, 378, 387, 386
241, 298, 299, 308, 307, 379, 380, 389, 388
242, 299, 300, 309, 308, 380, 381, 390, 389
243, 300, 301, 310, 309, 381, 382, 391, 390
244, 301, 302, 311, 310, 382, 383, 392, 391
245, 302, 303, 312, 311, 383, 384, 393, 392
246, 303, 304, 313, 312, 384, 385, 394, 393
247, 304, 305, 314, 313, 385, 386, 395, 394
248, 305, 306, 315, 314, 386, 387, 396, 395
249, 307, 308, 317, 316, 388, 389, 398, 397
250, 308, 309, 318, 317, 389, 390, 399, 398
251, 309, 310, 319, 318, 390, 391, 400, 399
252, 310, 311, 320, 319, 391, 392, 401, 400
253, 311, 312, 321, 320, 392, 393, 402, 401
254, 312, 313, 322, 321, 393, 394, 403, 402
255, 313, 314, 323, 322, 394, 395, 404, 403
256, 314, 315, 324, 323, 395, 396, 405, 404
257, 325, 326, 335, 334, 406, 407, 416, 415
258, 326, 327, 336, 335, 407, 408, 417, 416
259, 327, 328, 337, 336, 408, 409, 418, 417
260, 328, 329, 338, 337, 409, 410, 419, 418
261, 329, 330, 339, 338, 410, 411, 420, 419
262, 330, 331, 340, 339, 411, 412, 421, 420
263, 331, 332, 341, 340, 412, 413, 422, 421
264, 332, 333, 342, 341, 413, 414, 423, 422
265, 334, 335, 344, 343, 415, 416, 425, 424
266, 335, 336, 345, 344, 416, 417, 426, 425
267, 336, 337, 346, 345, 417, 418, 427, 426
268, 337, 338, 347, 346, 418, 419, 428, 427
269, 338, 339, 348, 347, 419, 420, 429, 428
270, 339, 340, 349, 348, 420, 421, 430, 429
271, 340, 341, 350, 349, 421, 422, 431, 430
272, 341, 342, 351, 350, 422, 423, 432, 431
273, 343, 344, 353, 352, 424, 425, 434, 433
274, 344, 345, 354, 353, 425, 426, 435, 434
275, 345, 346, 355, 354, 426, 427, 436, 435
276, 346, 347, 356, 355, 427, 428, 437, 436
277, 347, 348, 357, 356, 428, 429, 438, 437
278, 348, 349, 358, 357, 429, 430, 439, 438
279, 349, 350, 359, 358, 430, 431, 440, 439
280, 350, 351, 360, 359, 431, 432, 441, 440
281, 352, 353, 362, 361, 433, 434, 443, 442
282, 353, 354, 363, 362, 434, 435, 444, 443
283, 354, 355, 364, 363, 435, 436, 445, 444
284, 355, 356, 365, 364, 436, 437, 446, 445
285, 356, 357, 366, 365, 437, 438, 447, 446
286, 357, 358, 367, 366, 438, 439, 448, 447
287, 358, 359, 368, 367, 439, 440, 449, 448
288, 359, 360, 369, 368, 440, 441, 450, 449
289, 361, 362, 371, 370, 442, 443, 452, 451
290, 362, 363, 372, 371, 443, 444, 453, 452
291, 363, 364, 373, 372, 444, 445, 454, 453
292, 364, 365, 374, 373, 445, 446, 455, 454
293, 365, 366, 375, 374, 446, 447, 456, 455
294, 366, 367, 376, 375, 447, 448, 457, 456
295, 367, 368, 377, 376, 448, 449, 458, 457
296, 368, 369, 378, 377, 449, 450, 459, 458
297, 370, 371, 380, 379, 451, 452, 461, 460
298, 371, 372, 381, 380, 452, 453, 462, 461
299, 372, 373, 382, 381, 453, 454, 463, 462
300, 373, 374, 383, 382, 454, 455, 464, 463
301, 374, 375, 384, 383, 455, 456, 465, 464
302, 375, 376, 385, 384, 456, 457, 466, 465
303, 376, 377, 386, 385, 457, 458, 467, 466
304, 377, 378, 387, 386, 458, 459, 468, 467
305, 379, 380, 389, 388, 460, 461, 470, 469
306, 380, 381, 390, 389, 461, 462, 471, 470
307, 381, 382, 391, 390, 462, 463, 472, 471
308, 382, 383, 392, 391, 463, 464, 473, 472
309, 383, 384, 393, 392, 464, 465, 474, 473
310, 384, 385, 394, 393, 465, 466, 475, 474
311, 385, 386, 395, 394, 466, 467, 476, 475
312, 386, 387, 396, 395, 467, 468, 477, 476
313, 388, 389, 398, 397, 469, 470, 479, 478
314, 389, 390, 399, 398, 470, 471, 480, 479
315, 390, 391, 400, 399, 471, 472, 481, 480
316, 391, 392, 401, 400, 472, 473, 482, 481
317, 392, 393, 402, 401, 473, 474, 483, 482
318, 393, 394, 403, 402, 474, 475, 484, 483
319, 394, 395, 404, 403, 475, 476, 485, 484
320, 395, 396, 405, 404, 476, 477, 486, 485
321, 406, 407, 416, 415, 487, 488, 497, 496
322, 407, 408, 417, 416, 488, 489, 498, 497
323, 408, 409, 418, 417, 489, 490, 499, 498
324, 409, 410, 419, 418, 490, 491, 500, 499
325, 410, 411, 420, 419, 491, 492, 501, 500
326, 411, 412, 421, 420, 492, 493, 502, 501
327, 412, 413, 422, 421, 493, 494, 503, 502
328, 413, 414, 423, 422, 494, 495, 504, 503
329, 415, 416, 425, 424, 496, 497, 506, 505
330, 416, 417, 426, 425, 497, 498, 507, 506
331, 417, 418, 427, 426, 498, 499, 508, 507
332, 418, 419, 428, 427, 499, 500, 509, 508
333, 419, 420, 429, 428, 500, 501, 510, 509
334, 420, 421, 430, 429, 501, 502, 511, 510
335, 421, 422, 431, 430, 502, 503, 512, 511
336, 422, 423, 432, 431, 503, 504, 513, 512
337, 424, 425, 434, 433, 505, 506, 515, 514
338, 425, 426, 435, 434, 506, 507, 516, 515
339, 426, 427, 436, 435, 507, 508, 517, 516
340, 427, 428, 437, 436, 508, 509, 518, 517
341, 428, 429, 438, 437, 509, 510, 519, 518
342, 429, 430, 439, 438, 510, 511, 520, 519
343, 430, 431, 440, 439, 511, 512, 521, 520
344, 431, 432, 441, 440, 512, 513, 522, 521
345, 433, 434, 443, 442, 514, 515, 524, 523
346, 434, 435, 444, 443, 515, 516, 525, 524
347, 435, 436, 445, 444, 516, 517, 526, 525
348, 436, 437, 446, 445, 517, 518, 527, 526
349, 437, 438, 447, 446, 518, 519, 528, 527
350, 438, 439, 448, 447, 519, 520, 529, 528
351, 439, 440, 449, 448, 520, 521, 530, 529
352, 440, 441, 450, 449, 521, 522, 531, 530
353, 442, 443, 452, 451, 523, 524, 533, 532
354, 443, 444, 453, 452, 524, 525, 534, 533
355, 444, 445, 454, 453, 525, 526, 535, 534
356, 445, 446, 455, 454, 526, 527, 536, 535
357, 446, 447, 456, 455, 527, 528, 537, 536
358, 447, 448, 457, 456, 528, 529, 538, 537
359, 448, 449, 458, 457, 529, 530, 539, 538
360, 449, 450, 459, 458, 530, 531, 540, 539
361, 451, 452, 461, 460, 532, 533, 542, 541
362, 452, 453, 462, 461, 533, 534, 543, 542
363, 453, 454, 463, 462, 534, 535, 544, 543
364, 454, 455, 464, 463, 535, 536, 545, 544
365, 455, 456, 465, 464, 536, 537, 546, 545
366, 456, 457, 466, 465, 537, 538, 547, 546
367, 457, 458, 467, 466, 538, 539, 548, 547
368, 458, 459, 468, 467, 539, 540, 549, 548
369, 460, 461, 470, 469, 541, 542, 551, 550
370, 461, 462, 471, 470, 542, 543, 552, 551
371, 462, 463, 472, 471, 543, 544, 553, 552
372, 463, 464, 473, 472, 544, 545, 554, 553
373, 464, 465, 474, 473, 545, 546, 555, 554
374, 465, 466, 475, 474, 546, 547, 556, 555
375, 466, 467, 476, 475, 547, 548, 557, 556
376, 467, 468, 477, 476, 548, 549, 558, 557
377, 469, 470, 479, 478, 550, 551, 560, 559
378, 470, 471, 480, 479, 551, 552, 561, 560
379, 471, 472, 481, 480, 552, 553, 562, 561
380, 472, 473, 482, 481, 553, 554, 563, 562
381, 473, 474, 483, 482, 554, 555, 564, 563
382, 474, 475, 484, 483, 555, 556, 565, 564
383, 475, 476, 485, 484, 556, 557, 566, 565
384, 476, 477, 486, 485, 557, 558, 567, 566
385, 487, 488, 497, 496, 568, 569, 578, 577
386, 488, 489, 498, 497, 569, 570, 579, 578
387, 489, 490, 499, 498, 570, 571, 580, 579
388, 490, 491, 500, 499, 571, 572, 581, 580
389, 491, 492, 501, 500, 572, 573, 582, 581
390, 492, 493, 502, 501, 573, 574, 583, 582
391, 493, 494, 503, 502, 574, 575, 584, 583
392, 494, 495, 504, 503, 575, 576, 585, 584
393, 496, 497, 506, 505, 577, 578, 587, 586
394, 497, 498, 507, 506, 578, 579, 588, 587
395, 498, 499, 508, 507, 579, 580, 589, 588
396, 499, 500, 509, 508, 580, 581, 590, 589
397, 500, 501, 510, 509, 581, 582, 591, 590
398, 501, 502, 511, 510, 582, 583, 592, 591
399, 502, 503, 512, 511, 583, 584, 593, 592
400, 503, 504, 513, 512, 584, 585, 594, 593
401, 505, 506, 515, 514, 586, 587, 596, 595
402, 506, 507, 516, 515, 587, 588, 597, 596
403, 507, 508, 517, 516, 588, 589, 598, 597
404, 508, 509, 518, 517, 589, 590, 599, 598
405, 509, 510, 519, 518, 590, 591, 600, 599
406, 510, 511, 520, 519, 591, 592, 601, 600
407, 511, 512, 521, 520, 592, 593, 602, 601
408, 512, 513, 522, 521, 593, 594, 603, 602
409, 514, 515, 524, 523, 595, 596, 605, 604
410, 515, 516, 525, 524, 596, 597, 606, 605
411, 516, 517, 526, 525, 597, 598, 607, 606
412, 517, 518, 527, 526, 598, 599, 608, 607
413, 518, 519, 528, 527, 599, 600, 609, 608
414, 519, 520, 529, 528, 600, 601, 610, 609
415, 520, 521, 530, 529, 601, 602, 611, 610
416, 521, 522, 531, 530, 602, 603, 612, 611
417, 523, 524, 533, 532, 604, 605, 614, 613
418, 524, 525, 534, 533, 605, 606, 615, 614
419, 525, 526, 535, 534, 606, 607, 616, 615
420, 526, 527, 536, 535, 607, 608, 617, 616
421, 527, 528, 537, 536, 608, 609, 618, 617
422, 528, 529, 538, 537, 609, 610, 619, 618
423, 529, 530, 539, 538, 610, 611, 620, 619
424, 530, 531, 540, 539, 611, 612, 621, 620
425, 532, 533, 542, 541, 613, 614, 623, 622
426, 533, 534, 543, 542, 614, 615, 624, 623
427, 534, 535, 544, 543, 615, 616, 625, 624
428, 535, 536, 545, 544, 616, 617, 626, 625
429, 536, 537, 546, 545, 617, 618, 627, 626
430, 537, 538, 547, 546, 618, 619, 628, 627
431, 538, 539, 548, 547, 619, 620, 629, 628
432, 539, 540, 549, 548, 620, 621, 630, 629
433, 541, 542, 551, 550, 622, 623, 632, 631
434, 542, 543, 552, 551, 623, 624, 633, 632
435, 543, 544, 553, 552, 624, 625, 634, 633
436, 544, 545, 554, 553, 625, 626, 635, 634
437, 545, 546, 555, 554, 626, 627, 636, 635
438, 546, 547, 556, 555, 627, 628, 637, 636
439, 547, 548, 557, 556, 628, 629, 638, 637
440, 548, 549, 558, 557, 629, 630, 639, 638
441, 550, 551, 560, 559, 631, 632, 641, 640
442, 551, 552, 561, 560, 632, 633, 642, 641
443, 552, 553, 562, 561, 633, 634, 643, 642
444, 553, 554, 563, 562, 634, 635, 644, 643
445, 554, 555, 564, 563, 635, 636, 645, 644
446, 555, 556, 565, 564, 636, 637, 646, 645
447, 556, 557, 566, 565, 637, 638, 647, 646
448, 557, 558, 567, 566, 638, 639, 648, 647
449, 568, 569, 578, 577, 649, 650, 659, 658
450, 569, 570, 579, 578, 650, 651, 660, 659
451, 570, 571, 580, 579, 651, 652, 661, 660
452, 571, 572, 581, 580, 652, 653, 662, 661
453, 572, 573, 582, 581, 653, 654, 663, 662
454, 573, 574, 583, 582, 654, 655, 664, 663
455, 574, 575, 584, 583, 655, 656, 665, 664
456, 575, 576, 585, 584, 656, 657, 666, 665
457, 577, 578, 587, 586, 658, 659, 668, 667
458, 578, 579, 588, 587, 659, 660, 669, 668
459, 579, 580, 589, 588, 660, 661, 670, 669
460, 580, 581, 590, 589, 661, 662, 671, 670
461, 581, 582, 591, 590, 662, 663, 672, 671
462, 582, 583, 592, 591, 663, 664, 673, 672
463, 583, 584, 593, 592, 664, 665, 674, 673
464, 584, 585, 594, 593, 665, 666, 675, 674
465, 586, 587, 596, 595, 667, 668, 677, 676
466, 587, 588, 597, 596, 668, 669, 678, 677
467, 588, 589, 598, 597, 669, 670, 679, 678
468, 589, 590, 599, 598, 670, 671, 680, 679
469, 590, 591, 600, 599, 671, 672, 681, 680
470, 591, 592, 601, 600, 672, 673, 682, 681
471, 592, 593, 602, 601, 673, 674, 683, 682
472, 593, 594, 603, 602, 674, 675, 684, 683
473, 595, 596, 605, 604, 676, 677, 686, 685
474, 596, 597, 606, 605, 677, 678, 687, 686
475, 597, 598, 607, 606, 678, 679, 688, 687
476, 598, 599, 608, 607, 679, 680, 689, 688
477, 599, 600, 609, 608, 680, 681, 690, 689
478, 600, 601, 610, 609, 681, 682, 691, 690
479, 601, 602, 611, 610, 682, 683, 692, 691
480, 602, 603, 612, 611, 683, 684, 693, 692
481, 604, 605, 614, 613, 685, 686, 695, 694
482, 605, 606, 615, 614, 686, 687, 696, 695
483, 606, 607, 616, 615, 687, 688, 697, 696
484, 607, 608, 617, 616, 688, 689, 698, 697
485, 608, 609, 618, 617, 689, 690, 699, 698
486, 609, 610, 619, 618, 690, 691, 700, 699
487, 610, 611, 620, 619, 691, 692, 701, 700
488, 611, 612, 621, 620, 692, 693, 702, 701
489, 613, 614, 623, 622, 694, 695, 704, 703
490, 614, 615, 624, 623, 695, 696, 705, 704
491, 615, 616, 625, 624, 696, 697, 706, 705
492, 616, 617, 626, 625, 697, 698, 707, 706
493, 617, 618, 627, 626, 698, 699, 708, 707
494, 618, 619, 628, 627, 699, 700, 709, 708
495, 619, 620, 629, 628, 700, 701, 710, 709
496, 620, 621, 630, 629, 701, 702, 711, 710
497, 622, 623, 632, 631, 703, 704, 713, 712
498, 623, 624, 633, 632, 704, 705, 714, 713
499, 624, 625, 634, 633, 705, 706, 715, 714
500, 625, 626, 635, 634, 706, 707, 716, 715
501, 626, 627, 636, 635, 707, 708, 717, 716
502, 627, 628, 637, 636, 708, 709, 718, 717
503, 628, 629, 638, 637, 709, 710, 719, 718
504, 629, 630, 639, 638, 710, 711, 720, 719
505, 631, 632, 641, 640, 712, 713, 722, 721
506, 632, 633, 642, 641, 713, 714, 723, 722
507, 633, 634, 643, 642, 714, 715, 724, 723
508, 634, 635, 644, 643, 715, 716, 725, 724
509, 635, 636, 645, 644, 716, 717, 726, 725
510, 636, 637, 646, 645, 717, 718, 727, 726
511, 637, 638, 647, 646, 718, 719, 728, 727
512, 638, 639, 648, 647, 719, 720, 729, 728
*NSET, NSET=NALL
1, 2, 3, 4, 5, 6, 7, 8, 9, 10, 11, 12, 13, 14, 15, 16
17, 18, 19, 20, 21, 22, 23, 24, 25, 26, 27, 28, 29, 30, 31, 32
33, 34, 35, 36, 37, 38, 39, 40, 41, 42, 43, 44, 45, 46, 47, 48
49, 50, 51, 52, 53, 54, 55, 56, 57, 58, 59, 60, 61, 62, 63, 64
65, 66, 67, 68, 69, 70, 71, 72, 73, 74, 75, 76, 77, 78, 79, 80
81, 82, 83, 84, 85, 86, 87, 88, 89, 90, 91, 92, 93, 94, 95, 96
97, 98, 99, 100, 101, 102, 103, 104, 105, 106, 107, 108, 109, 110, 111, 112
113, 114, 115, 116, 117, 118, 119, 120, 121, 122, 123, 124, 125, 126, 127, 128
129, 130, 131, 132, 133, 134, 135, 136, 137, 138, 139, 140, 141, 142, 143, 144
145, 146, 147, 148, 149, 150, 151, 152, 153, 154, 155, 156, 157, 158, 159, 160
161, 162, 163, 164, 165, 166, 167, 168, 169, 170, 171, 172, 173, 174, 175, 176
177, 178, 179, 180, 181, 182, 183, 184, 185, 186, 187, 188, 189, 190, 191, 192
193, 194, 195, 196, 197, 198, 199, 200, 201, 202, 203, 204, 205, 206, 207, 208
209, 210, 211, 212, 213, 214, 215, 216, 217, 218, 219, 220, 221, 222, 223, 224
225, 226, 227, 228, 229, 230, 231, 232, 233, 234, 235, 236, 237, 238, 239, 240
241, 242, 243, 244, 245, 246, 247, 248, 249, 250, 251, 252, 253, 254, 255, 256
257, 258, 259, 260, 261, 262, 263, 264, 265, 266, 267, 268, 269, 270, 271, 272
273, 274, 275, 276, 277, 278, 279, 280, 281, 282, 283, 284, 285, 286, 287, 288
289, 290, 291, 292, 293, 294, 295, 296, 297, 298, 299, 300, 301, 302, 303, 304
305, 306, 307, 308, 309, 310, 311, 312, 313, 314, 315, 316, 317, 318, 319, 320
321, 322, 323, 324, 325, 326, 327, 328, 329, 330, 331, 332, 333, 334, 335, 336
337, 338, 339, 340, 341, 342, 343, 344, 345, 346, 347, 348, 349, 350, 351, 352
353, 354, 355, 356, 357, 358, 359, 360, 361, 362, 363, 364, 365, 366, 367, 368
369, 370, 371, 372, 373, 374, 375, 376, 377, 378, 379, 380, 381, 382, 383, 384
385, 386, 387, 388, 389, 390, 391, 392, 393, 394, 395, 396, 397, 398, 399, 400
401, 402, 403, 404, 405, 406, 407, 408, 409, 410, 411, 412, 413, 414, 415, 416
417, 418, 419, 420, 421, 422, 423, 424, 425, 426, 427, 428, 429, 430, 431, 432
433, 434, 435, 436, 437, 438, 439, 440, 441, 442, 443, 444, 445, 446, 447, 448
449, 450, 451, 452, 453, 454, 455, 456, 457, 458, 459, 460, 461, 462, 463, 464
465, 466, 467, 468, 469, 470, 471, 472, 473, 474, 475, 476, 477, 478, 479, 480
481, 482, 483, 484, 485, 486, 487, 488, 489, 490, 491, 492, 493, 494, 495, 496
497, 498, 499, 500, 501, 502, 503, 504, 505, 506, 507, 508, 509, 510, 511, 512
513, 514, 515, 516, 517, 518, 519, 520, 521, 522, 523, 524, 525, 526, 527, 528
529, 530, 531, 532, 533, 534, 535, 536, 537, 538, 539, 540, 541, 542, 543, 544
545, 546, 547, 548, 549, 550, 551, 552, 553, 554, 555, 556, 557, 558, 559, 560
561, 562, 563, 564, 565, 566, 567, 568, 569, 570, 571, 572, 573, 574, 575, 576
577, 578, 579, 580, 581, 582, 583, 584, 585, 586, 587, 588, 589, 590, 591, 592
593, 594, 595, 596, 597, 598, 599, 600, 601, 602, 603, 604, 605, 606, 607, 608
609, 610, 611, 612, 613, 614, 615, 616, 617, 618, 619, 620, 621, 622, 623, 624
625, 626, 627, 628, 629, 630, 631, 632, 633, 634, 635, 636, 637, 638, 639, 640
641, 642, 643, 644, 645, 646, 647, 648, 649, 650, 651, 652, 653, 654, 655, 656
657, 658, 659, 660, 661, 662, 663, 664, 665, 666, 667, 668, 669, 670, 671, 672
673, 674, 675, 676, 677, 678, 679, 680, 681, 682, 683, 684, 685, 686, 687, 688
689, 690, 691, 692, 693, 694, 695, 696, 697, 698, 699, 700, 701, 702, 703, 704
705, 706, 707, 708, 709, 710, 711, 712, 713, 714, 715, 716, 717, 718, 719, 720
721, 722, 723, 724, 725, 726, 727, 728, 729
*NSET, NSET=XMIN
1, 10, 19, 28, 37, 46, 55, 64, 73, 82, 91, 100, 109, 118, 127, 136
145, 154, 163, 172, 181, 190, 199, 208, 217, 226, 235, 244, 253, 262, 271, 280
289, 298, 307, 316, 325, 334, 343, 352, 361, 370, 379, 388, 397, 406, 415, 424
433, 442, 451, 460, 469, 478, 487, 496, 505, 514, 523, 532, 541, 550, 559, 568
577, 586, 595, 604, 613, 622, 631, 640, 649, 658, 667, 676, 685, 694, 703, 712
721
*NSET, NSET=YMIN
1, 2, 3, 4, 5, 6, 7, 8, 9, 82, 83, 84, 85, 86, 87, 88
89, 90, 163, 164, 165, 166, 167, 168, 169, 170, 171, 244, 245, 246, 247, 248
249, 250, 251, 252, 325, 326, 327, 328, 329, 330, 331, 332, 333, 406, 407, 408
409, 410, 411, 412, 413, 414, 487, 488, 489, 490, 491, 492, 493, 494, 495, 568
569, 570, 571, 572, 573, 574, 575, 576, 649, 650, 651, 652, 653, 654, 655, 656
657
*NSET, NSET=ZMIN
1, 2, 3, 4, 5, 6, 7, 8, 9, 10, 11, 12, 13, 14, 15, 16
17, 18, 19, 20, 21, 22, 23, 24, 25, 26, 27, 28, 29, 30, 31, 32
33, 34, 35, 36, 37, 38, 39, 40, 41, 42, 43, 44, 45, 46, 47, 48
49, 50, 51, 52, 53, 54, 55, 56, 57, 58, 59, 60, 61, 62, 63, 64
65, 66, 67, 68, 69, 70, 71, 72, 73, 74, 75, 76, 77, 78, 79, 80
81
*NSET, NSET=XMAX
9, 18, 27, 36, 45, 54, 63, 72, 81, 90, 99, 108, 117, 126, 135, 144
153, 162, 171, 180, 189, 198, 207, 216, 225, 234, 243, 252, 261, 270, 279, 288
297, 306, 315, 324, 333, 342, 351, 360, 369, 378, 387, 396, 405, 414, 423, 432
441, 450, 459, 468, 477, 486, 495, 504, 513, 522, 531, 540, 549, 558, 567, 576
585, 594, 603, 612, 621, 630, 639, 648, 657, 666, 675, 684, 693, 702, 711, 720
729
*ELSET, ELSET=PROBE
220
*SOLID SECTION, ELSET=EALL, MATERIAL=VALIDATION
*MATERIAL, NAME=VALIDATION
*ELASTIC
1.0E9, 0.25
*DENSITY
1000.
*BOUNDARY
XMIN, 1, 1, 0.
YMIN, 2, 2, 0.
ZMIN, 3, 3, 0.
*STEP
*STATIC
*DLOAD
EALL, GRAV, 9.81, 0., 0., -1.
*NODE PRINT, NSET=XMAX
U
*NODE PRINT, NSET=XMIN, TOTALS=YES
RF
*NODE PRINT, NSET=YMIN, TOTALS=YES
RF
*NODE PRINT, NSET=ZMIN, TOTALS=YES
RF
*EL PRINT, ELSET=PROBE
S
*END STEP
