** SpjutSim FEA independent reference: cantilever-bending
** Generated by tools/generate-calculix-reference.py; SI units.
*NODE
1, 0, 0, 0
2, 0.0625, 0, 0
3, 0.125, 0, 0
4, 0.1875, 0, 0
5, 0.25, 0, 0
6, 0.3125, 0, 0
7, 0.375, 0, 0
8, 0.4375, 0, 0
9, 0.5, 0, 0
10, 0.5625, 0, 0
11, 0.625, 0, 0
12, 0.6875, 0, 0
13, 0.75, 0, 0
14, 0.8125, 0, 0
15, 0.875, 0, 0
16, 0.9375, 0, 0
17, 1, 0, 0
18, 1.0625, 0, 0
19, 1.125, 0, 0
20, 1.1875, 0, 0
21, 1.25, 0, 0
22, 1.3125, 0, 0
23, 1.375, 0, 0
24, 1.4375, 0, 0
25, 1.5, 0, 0
26, 1.5625, 0, 0
27, 1.625, 0, 0
28, 1.6875, 0, 0
29, 1.75, 0, 0
30, 1.8125, 0, 0
31, 1.875, 0, 0
32, 1.9375, 0, 0
33, 2, 0, 0
34, 2.0625, 0, 0
35, 2.125, 0, 0
36, 2.1875, 0, 0
37, 2.25, 0, 0
38, 2.3125, 0, 0
39, 2.375, 0, 0
40, 2.4375, 0, 0
41, 2.5, 0, 0
42, 2.5625, 0, 0
43, 2.625, 0, 0
44, 2.6875, 0, 0
45, 2.75, 0, 0
46, 2.8125, 0, 0
47, 2.875, 0, 0
48, 2.9375, 0, 0
49, 3, 0, 0
50, 3.0625, 0, 0
51, 3.125, 0, 0
52, 3.1875, 0, 0
53, 3.25, 0, 0
54, 3.3125, 0, 0
55, 3.375, 0, 0
56, 3.4375, 0, 0
57, 3.5, 0, 0
58, 3.5625, 0, 0
59, 3.625, 0, 0
60, 3.6875, 0, 0
61, 3.75, 0, 0
62, 3.8125, 0, 0
63, 3.875, 0, 0
64, 3.9375, 0, 0
65, 4, 0, 0
66, 0, 0.0625, 0
67, 0.0625, 0.0625, 0
68, 0.125, 0.0625, 0
69, 0.1875, 0.0625, 0
70, 0.25, 0.0625, 0
71, 0.3125, 0.0625, 0
72, 0.375, 0.0625, 0
73, 0.4375, 0.0625, 0
74, 0.5, 0.0625, 0
75, 0.5625, 0.0625, 0
76, 0.625, 0.0625, 0
77, 0.6875, 0.0625, 0
78, 0.75, 0.0625, 0
79, 0.8125, 0.0625, 0
80, 0.875, 0.0625, 0
81, 0.9375, 0.0625, 0
82, 1, 0.0625, 0
83, 1.0625, 0.0625, 0
84, 1.125, 0.0625, 0
85, 1.1875, 0.0625, 0
86, 1.25, 0.0625, 0
87, 1.3125, 0.0625, 0
88, 1.375, 0.0625, 0
89, 1.4375, 0.0625, 0
90, 1.5, 0.0625, 0
91, 1.5625, 0.0625, 0
92, 1.625, 0.0625, 0
93, 1.6875, 0.0625, 0
94, 1.75, 0.0625, 0
95, 1.8125, 0.0625, 0
96, 1.875, 0.0625, 0
97, 1.9375, 0.0625, 0
98, 2, 0.0625, 0
99, 2.0625, 0.0625, 0
100, 2.125, 0.0625, 0
101, 2.1875, 0.0625, 0
102, 2.25, 0.0625, 0
103, 2.3125, 0.0625, 0
104, 2.375, 0.0625, 0
105, 2.4375, 0.0625, 0
106, 2.5, 0.0625, 0
107, 2.5625, 0.0625, 0
108, 2.625, 0.0625, 0
109, 2.6875, 0.0625, 0
110, 2.75, 0.0625, 0
111, 2.8125, 0.0625, 0
112, 2.875, 0.0625, 0
113, 2.9375, 0.0625, 0
114, 3, 0.0625, 0
115, 3.0625, 0.0625, 0
116, 3.125, 0.0625, 0
117, 3.1875, 0.0625, 0
118, 3.25, 0.0625, 0
119, 3.3125, 0.0625, 0
120, 3.375, 0.0625, 0
121, 3.4375, 0.0625, 0
122, 3.5, 0.0625, 0
123, 3.5625, 0.0625, 0
124, 3.625, 0.0625, 0
125, 3.6875, 0.0625, 0
126, 3.75, 0.0625, 0
127, 3.8125, 0.0625, 0
128, 3.875, 0.0625, 0
129, 3.9375, 0.0625, 0
130, 4, 0.0625, 0
131, 0, 0.125, 0
132, 0.0625, 0.125, 0
133, 0.125, 0.125, 0
134, 0.1875, 0.125, 0
135, 0.25, 0.125, 0
136, 0.3125, 0.125, 0
137, 0.375, 0.125, 0
138, 0.4375, 0.125, 0
139, 0.5, 0.125, 0
140, 0.5625, 0.125, 0
141, 0.625, 0.125, 0
142, 0.6875, 0.125, 0
143, 0.75, 0.125, 0
144, 0.8125, 0.125, 0
145, 0.875, 0.125, 0
146, 0.9375, 0.125, 0
147, 1, 0.125, 0
148, 1.0625, 0.125, 0
149, 1.125, 0.125, 0
150, 1.1875, 0.125, 0
151, 1.25, 0.125, 0
152, 1.3125, 0.125, 0
153, 1.375, 0.125, 0
154, 1.4375, 0.125, 0
155, 1.5, 0.125, 0
156, 1.5625, 0.125, 0
157, 1.625, 0.125, 0
158, 1.6875, 0.125, 0
159, 1.75, 0.125, 0
160, 1.8125, 0.125, 0
161, 1.875, 0.125, 0
162, 1.9375, 0.125, 0
163, 2, 0.125, 0
164, 2.0625, 0.125, 0
165, 2.125, 0.125, 0
166, 2.1875, 0.125, 0
167, 2.25, 0.125, 0
168, 2.3125, 0.125, 0
169, 2.375, 0.125, 0
170, 2.4375, 0.125, 0
171, 2.5, 0.125, 0
172, 2.5625, 0.125, 0
173, 2.625, 0.125, 0
174, 2.6875, 0.125, 0
175, 2.75, 0.125, 0
176, 2.8125, 0.125, 0
177, 2.875, 0.125, 0
178, 2.9375, 0.125, 0
179, 3, 0.125, 0
180, 3.0625, 0.125, 0
181, 3.125, 0.125, 0
182, 3.1875, 0.125, 0
183, 3.25, 0.125, 0
184, 3.3125, 0.125, 0
185, 3.375, 0.125, 0
186, 3.4375, 0.125, 0
187, 3.5, 0.125, 0
188, 3.5625, 0.125, 0
189, 3.625, 0.125, 0
190, 3.6875, 0.125, 0
191, 3.75, 0.125, 0
192, 3.8125, 0.125, 0
193, 3.875, 0.125, 0
194, 3.9375, 0.125, 0
195, 4, 0.125, 0
196, 0, 0.1875, 0
197, 0.0625, 0.1875, 0
198, 0.125, 0.1875, 0
199, 0.1875, 0.1875, 0
200, 0.25, 0.1875, 0
201, 0.3125, 0.1875, 0
202, 0.375, 0.1875, 0
203, 0.4375, 0.1875, 0
204, 0.5, 0.1875, 0
205, 0.5625, 0.1875, 0
206, 0.625, 0.1875, 0
207, 0.6875, 0.1875, 0
208, 0.75, 0.1875, 0
209, 0.8125, 0.1875, 0
210, 0.875, 0.1875, 0
211, 0.9375, 0.1875, 0
212, 1, 0.1875, 0
213, 1.0625, 0.1875, 0
214, 1.125, 0.1875, 0
215, 1.1875, 0.1875, 0
216, 1.25, 0.1875, 0
217, 1.3125, 0.1875, 0
218, 1.375, 0.1875, 0
219, 1.4375, 0.1875, 0
220, 1.5, 0.1875, 0
221, 1.5625, 0.1875, 0
222, 1.625, 0.1875, 0
223, 1.6875, 0.1875, 0
224, 1.75, 0.1875, 0
225, 1.8125, 0.1875, 0
226, 1.875, 0.1875, 0
227, 1.9375, 0.1875, 0
228, 2, 0.1875, 0
229, 2.0625, 0.1875, 0
230, 2.125, 0.1875, 0
231, 2.1875, 0.1875, 0
232, 2.25, 0.1875, 0
233, 2.3125, 0.1875, 0
234, 2.375, 0.1875, 0
235, 2.4375, 0.1875, 0
236, 2.5, 0.1875, 0
237, 2.5625, 0.1875, 0
238, 2.625, 0.1875, 0
239, 2.6875, 0.1875, 0
240, 2.75, 0.1875, 0
241, 2.8125, 0.1875, 0
242, 2.875, 0.1875, 0
243, 2.9375, 0.1875, 0
244, 3, 0.1875, 0
245, 3.0625, 0.1875, 0
246, 3.125, 0.1875, 0
247, 3.1875, 0.1875, 0
248, 3.25, 0.1875, 0
249, 3.3125, 0.1875, 0
250, 3.375, 0.1875, 0
251, 3.4375, 0.1875, 0
252, 3.5, 0.1875, 0
253, 3.5625, 0.1875, 0
254, 3.625, 0.1875, 0
255, 3.6875, 0.1875, 0
256, 3.75, 0.1875, 0
257, 3.8125, 0.1875, 0
258, 3.875, 0.1875, 0
259, 3.9375, 0.1875, 0
260, 4, 0.1875, 0
261, 0, 0.25, 0
262, 0.0625, 0.25, 0
263, 0.125, 0.25, 0
264, 0.1875, 0.25, 0
265, 0.25, 0.25, 0
266, 0.3125, 0.25, 0
267, 0.375, 0.25, 0
268, 0.4375, 0.25, 0
269, 0.5, 0.25, 0
270, 0.5625, 0.25, 0
271, 0.625, 0.25, 0
272, 0.6875, 0.25, 0
273, 0.75, 0.25, 0
274, 0.8125, 0.25, 0
275, 0.875, 0.25, 0
276, 0.9375, 0.25, 0
277, 1, 0.25, 0
278, 1.0625, 0.25, 0
279, 1.125, 0.25, 0
280, 1.1875, 0.25, 0
281, 1.25, 0.25, 0
282, 1.3125, 0.25, 0
283, 1.375, 0.25, 0
284, 1.4375, 0.25, 0
285, 1.5, 0.25, 0
286, 1.5625, 0.25, 0
287, 1.625, 0.25, 0
288, 1.6875, 0.25, 0
289, 1.75, 0.25, 0
290, 1.8125, 0.25, 0
291, 1.875, 0.25, 0
292, 1.9375, 0.25, 0
293, 2, 0.25, 0
294, 2.0625, 0.25, 0
295, 2.125, 0.25, 0
296, 2.1875, 0.25, 0
297, 2.25, 0.25, 0
298, 2.3125, 0.25, 0
299, 2.375, 0.25, 0
300, 2.4375, 0.25, 0
301, 2.5, 0.25, 0
302, 2.5625, 0.25, 0
303, 2.625, 0.25, 0
304, 2.6875, 0.25, 0
305, 2.75, 0.25, 0
306, 2.8125, 0.25, 0
307, 2.875, 0.25, 0
308, 2.9375, 0.25, 0
309, 3, 0.25, 0
310, 3.0625, 0.25, 0
311, 3.125, 0.25, 0
312, 3.1875, 0.25, 0
313, 3.25, 0.25, 0
314, 3.3125, 0.25, 0
315, 3.375, 0.25, 0
316, 3.4375, 0.25, 0
317, 3.5, 0.25, 0
318, 3.5625, 0.25, 0
319, 3.625, 0.25, 0
320, 3.6875, 0.25, 0
321, 3.75, 0.25, 0
322, 3.8125, 0.25, 0
323, 3.875, 0.25, 0
324, 3.9375, 0.25, 0
325, 4, 0.25, 0
326, 0, 0, 0.0625
327, 0.0625, 0, 0.0625
328, 0.125, 0, 0.0625
329, 0.1875, 0, 0.0625
330, 0.25, 0, 0.0625
331, 0.3125, 0, 0.0625
332, 0.375, 0, 0.0625
333, 0.4375, 0, 0.0625
334, 0.5, 0, 0.0625
335, 0.5625, 0, 0.0625
336, 0.625, 0, 0.0625
337, 0.6875, 0, 0.0625
338, 0.75, 0, 0.0625
339, 0.8125, 0, 0.0625
340, 0.875, 0, 0.0625
341, 0.9375, 0, 0.0625
342, 1, 0, 0.0625
343, 1.0625, 0, 0.0625
344, 1.125, 0, 0.0625
345, 1.1875, 0, 0.0625
346, 1.25, 0, 0.0625
347, 1.3125, 0, 0.0625
348, 1.375, 0, 0.0625
349, 1.4375, 0, 0.0625
350, 1.5, 0, 0.0625
351, 1.5625, 0, 0.0625
352, 1.625, 0, 0.0625
353, 1.6875, 0, 0.0625
354, 1.75, 0, 0.0625
355, 1.8125, 0, 0.0625
356, 1.875, 0, 0.0625
357, 1.9375, 0, 0.0625
358, 2, 0, 0.0625
359, 2.0625, 0, 0.0625
360, 2.125, 0, 0.0625
361, 2.1875, 0, 0.0625
362, 2.25, 0, 0.0625
363, 2.3125, 0, 0.0625
364, 2.375, 0, 0.0625
365, 2.4375, 0, 0.0625
366, 2.5, 0, 0.0625
367, 2.5625, 0, 0.0625
368, 2.625, 0, 0.0625
369, 2.6875, 0, 0.0625
370, 2.75, 0, 0.0625
371, 2.8125, 0, 0.0625
372, 2.875, 0, 0.0625
373, 2.9375, 0, 0.0625
374, 3, 0, 0.0625
375, 3.0625, 0, 0.0625
376, 3.125, 0, 0.0625
377, 3.1875, 0, 0.0625
378, 3.25, 0, 0.0625
379, 3.3125, 0, 0.0625
380, 3.375, 0, 0.0625
381, 3.4375, 0, 0.0625
382, 3.5, 0, 0.0625
383, 3.5625, 0, 0.0625
384, 3.625, 0, 0.0625
385, 3.6875, 0, 0.0625
386, 3.75, 0, 0.0625
387, 3.8125, 0, 0.0625
388, 3.875, 0, 0.0625
389, 3.9375, 0, 0.0625
390, 4, 0, 0.0625
391, 0, 0.0625, 0.0625
392, 0.0625, 0.0625, 0.0625
393, 0.125, 0.0625, 0.0625
394, 0.1875, 0.0625, 0.0625
395, 0.25, 0.0625, 0.0625
396, 0.3125, 0.0625, 0.0625
397, 0.375, 0.0625, 0.0625
398, 0.4375, 0.0625, 0.0625
399, 0.5, 0.0625, 0.0625
400, 0.5625, 0.0625, 0.0625
401, 0.625, 0.0625, 0.0625
402, 0.6875, 0.0625, 0.0625
403, 0.75, 0.0625, 0.0625
404, 0.8125, 0.0625, 0.0625
405, 0.875, 0.0625, 0.0625
406, 0.9375, 0.0625, 0.0625
407, 1, 0.0625, 0.0625
408, 1.0625, 0.0625, 0.0625
409, 1.125, 0.0625, 0.0625
410, 1.1875, 0.0625, 0.0625
411, 1.25, 0.0625, 0.0625
412, 1.3125, 0.0625, 0.0625
413, 1.375, 0.0625, 0.0625
414, 1.4375, 0.0625, 0.0625
415, 1.5, 0.0625, 0.0625
416, 1.5625, 0.0625, 0.0625
417, 1.625, 0.0625, 0.0625
418, 1.6875, 0.0625, 0.0625
419, 1.75, 0.0625, 0.0625
420, 1.8125, 0.0625, 0.0625
421, 1.875, 0.0625, 0.0625
422, 1.9375, 0.0625, 0.0625
423, 2, 0.0625, 0.0625
424, 2.0625, 0.0625, 0.0625
425, 2.125, 0.0625, 0.0625
426, 2.1875, 0.0625, 0.0625
427, 2.25, 0.0625, 0.0625
428, 2.3125, 0.0625, 0.0625
429, 2.375, 0.0625, 0.0625
430, 2.4375, 0.0625, 0.0625
431, 2.5, 0.0625, 0.0625
432, 2.5625, 0.0625, 0.0625
433, 2.625, 0.0625, 0.0625
434, 2.6875, 0.0625, 0.0625
435, 2.75, 0.0625, 0.0625
436, 2.8125, 0.0625, 0.0625
437, 2.875, 0.0625, 0.0625
438, 2.9375, 0.0625, 0.0625
439, 3, 0.0625, 0.0625
440, 3.0625, 0.0625, 0.0625
441, 3.125, 0.0625, 0.0625
442, 3.1875, 0.0625, 0.0625
443, 3.25, 0.0625, 0.0625
444, 3.3125, 0.0625, 0.0625
445, 3.375, 0.0625, 0.0625
446, 3.4375, 0.0625, 0.0625
447, 3.5, 0.0625, 0.0625
448, 3.5625, 0.0625, 0.0625
449, 3.625, 0.0625, 0.0625
450, 3.6875, 0.0625, 0.0625
451, 3.75, 0.0625, 0.0625
452, 3.8125, 0.0625, 0.0625
453, 3.875, 0.0625, 0.0625
454, 3.9375, 0.0625, 0.0625
455, 4, 0.0625, 0.0625
456, 0, 0.125, 0.0625
457, 0.0625, 0.125, 0.0625
458, 0.125, 0.125, 0.0625
459, 0.1875, 0.125, 0.0625
460, 0.25, 0.125, 0.0625
461, 0.3125, 0.125, 0.0625
462, 0.375, 0.125, 0.0625
463, 0.4375, 0.125, 0.0625
464, 0.5, 0.125, 0.0625
465, 0.5625, 0.125, 0.0625
466, 0.625, 0.125, 0.0625
467, 0.6875, 0.125, 0.0625
468, 0.75, 0.125, 0.0625
469, 0.8125, 0.125, 0.0625
470, 0.875, 0.125, 0.0625
471, 0.9375, 0.125, 0.0625
472, 1, 0.125, 0.0625
473, 1.0625, 0.125, 0.0625
474, 1.125, 0.125, 0.0625
475, 1.1875, 0.125, 0.0625
476, 1.25, 0.125, 0.0625
477, 1.3125, 0.125, 0.0625
478, 1.375, 0.125, 0.0625
479, 1.4375, 0.125, 0.0625
480, 1.5, 0.125, 0.0625
481, 1.5625, 0.125, 0.0625
482, 1.625, 0.125, 0.0625
483, 1.6875, 0.125, 0.0625
484, 1.75, 0.125, 0.0625
485, 1.8125, 0.125, 0.0625
486, 1.875, 0.125, 0.0625
487, 1.9375, 0.125, 0.0625
488, 2, 0.125, 0.0625
489, 2.0625, 0.125, 0.0625
490, 2.125, 0.125, 0.0625
491, 2.1875, 0.125, 0.0625
492, 2.25, 0.125, 0.0625
493, 2.3125, 0.125, 0.0625
494, 2.375, 0.125, 0.0625
495, 2.4375, 0.125, 0.0625
496, 2.5, 0.125, 0.0625
497, 2.5625, 0.125, 0.0625
498, 2.625, 0.125, 0.0625
499, 2.6875, 0.125, 0.0625
500, 2.75, 0.125, 0.0625
501, 2.8125, 0.125, 0.0625
502, 2.875, 0.125, 0.0625
503, 2.9375, 0.125, 0.0625
504, 3, 0.125, 0.0625
505, 3.0625, 0.125, 0.0625
506, 3.125, 0.125, 0.0625
507, 3.1875, 0.125, 0.0625
508, 3.25, 0.125, 0.0625
509, 3.3125, 0.125, 0.0625
510, 3.375, 0.125, 0.0625
511, 3.4375, 0.125, 0.0625
512, 3.5, 0.125, 0.0625
513, 3.5625, 0.125, 0.0625
514, 3.625, 0.125, 0.0625
515, 3.6875, 0.125, 0.0625
516, 3.75, 0.125, 0.0625
517, 3.8125, 0.125, 0.0625
518, 3.875, 0.125, 0.0625
519, 3.9375, 0.125, 0.0625
520, 4, 0.125, 0.0625
521, 0, 0.1875, 0.0625
522, 0.0625, 0.1875, 0.0625
523, 0.125, 0.1875, 0.0625
524, 0.1875, 0.1875, 0.0625
525, 0.25, 0.1875, 0.0625
526, 0.3125, 0.1875, 0.0625
527, 0.375, 0.1875, 0.0625
528, 0.4375, 0.1875, 0.0625
529, 0.5, 0.1875, 0.0625
530, 0.5625, 0.1875, 0.0625
531, 0.625, 0.1875, 0.0625
532, 0.6875, 0.1875, 0.0625
533, 0.75, 0.1875, 0.0625
534, 0.8125, 0.1875, 0.0625
535, 0.875, 0.1875, 0.0625
536, 0.9375, 0.1875, 0.0625
537, 1, 0.1875, 0.0625
538, 1.0625, 0.1875, 0.0625
539, 1.125, 0.1875, 0.0625
540, 1.1875, 0.1875, 0.0625
541, 1.25, 0.1875, 0.0625
542, 1.3125, 0.1875, 0.0625
543, 1.375, 0.1875, 0.0625
544, 1.4375, 0.1875, 0.0625
545, 1.5, 0.1875, 0.0625
546, 1.5625, 0.1875, 0.0625
547, 1.625, 0.1875, 0.0625
548, 1.6875, 0.1875, 0.0625
549, 1.75, 0.1875, 0.0625
550, 1.8125, 0.1875, 0.0625
551, 1.875, 0.1875, 0.0625
552, 1.9375, 0.1875, 0.0625
553, 2, 0.1875, 0.0625
554, 2.0625, 0.1875, 0.0625
555, 2.125, 0.1875, 0.0625
556, 2.1875, 0.1875, 0.0625
557, 2.25, 0.1875, 0.0625
558, 2.3125, 0.1875, 0.0625
559, 2.375, 0.1875, 0.0625
560, 2.4375, 0.1875, 0.0625
561, 2.5, 0.1875, 0.0625
562, 2.5625, 0.1875, 0.0625
563, 2.625, 0.1875, 0.0625
564, 2.6875, 0.1875, 0.0625
565, 2.75, 0.1875, 0.0625
566, 2.8125, 0.1875, 0.0625
567, 2.875, 0.1875, 0.0625
568, 2.9375, 0.1875, 0.0625
569, 3, 0.1875, 0.0625
570, 3.0625, 0.1875, 0.0625
571, 3.125, 0.1875, 0.0625
572, 3.1875, 0.1875, 0.0625
573, 3.25, 0.1875, 0.0625
574, 3.3125, 0.1875, 0.0625
575, 3.375, 0.1875, 0.0625
576, 3.4375, 0.1875, 0.0625
577, 3.5, 0.1875, 0.0625
578, 3.5625, 0.1875, 0.0625
579, 3.625, 0.1875, 0.0625
580, 3.6875, 0.1875, 0.0625
581, 3.75, 0.1875, 0.0625
582, 3.8125, 0.1875, 0.0625
583, 3.875, 0.1875, 0.0625
584, 3.9375, 0.1875, 0.0625
585, 4, 0.1875, 0.0625
586, 0, 0.25, 0.0625
587, 0.0625, 0.25, 0.0625
588, 0.125, 0.25, 0.0625
589, 0.1875, 0.25, 0.0625
590, 0.25, 0.25, 0.0625
591, 0.3125, 0.25, 0.0625
592, 0.375, 0.25, 0.0625
593, 0.4375, 0.25, 0.0625
594, 0.5, 0.25, 0.0625
595, 0.5625, 0.25, 0.0625
596, 0.625, 0.25, 0.0625
597, 0.6875, 0.25, 0.0625
598, 0.75, 0.25, 0.0625
599, 0.8125, 0.25, 0.0625
600, 0.875, 0.25, 0.0625
601, 0.9375, 0.25, 0.0625
602, 1, 0.25, 0.0625
603, 1.0625, 0.25, 0.0625
604, 1.125, 0.25, 0.0625
605, 1.1875, 0.25, 0.0625
606, 1.25, 0.25, 0.0625
607, 1.3125, 0.25, 0.0625
608, 1.375, 0.25, 0.0625
609, 1.4375, 0.25, 0.0625
610, 1.5, 0.25, 0.0625
611, 1.5625, 0.25, 0.0625
612, 1.625, 0.25, 0.0625
613, 1.6875, 0.25, 0.0625
614, 1.75, 0.25, 0.0625
615, 1.8125, 0.25, 0.0625
616, 1.875, 0.25, 0.0625
617, 1.9375, 0.25, 0.0625
618, 2, 0.25, 0.0625
619, 2.0625, 0.25, 0.0625
620, 2.125, 0.25, 0.0625
621, 2.1875, 0.25, 0.0625
622, 2.25, 0.25, 0.0625
623, 2.3125, 0.25, 0.0625
624, 2.375, 0.25, 0.0625
625, 2.4375, 0.25, 0.0625
626, 2.5, 0.25, 0.0625
627, 2.5625, 0.25, 0.0625
628, 2.625, 0.25, 0.0625
629, 2.6875, 0.25, 0.0625
630, 2.75, 0.25, 0.0625
631, 2.8125, 0.25, 0.0625
632, 2.875, 0.25, 0.0625
633, 2.9375, 0.25, 0.0625
634, 3, 0.25, 0.0625
635, 3.0625, 0.25, 0.0625
636, 3.125, 0.25, 0.0625
637, 3.1875, 0.25, 0.0625
638, 3.25, 0.25, 0.0625
639, 3.3125, 0.25, 0.0625
640, 3.375, 0.25, 0.0625
641, 3.4375, 0.25, 0.0625
642, 3.5, 0.25, 0.0625
643, 3.5625, 0.25, 0.0625
644, 3.625, 0.25, 0.0625
645, 3.6875, 0.25, 0.0625
646, 3.75, 0.25, 0.0625
647, 3.8125, 0.25, 0.0625
648, 3.875, 0.25, 0.0625
649, 3.9375, 0.25, 0.0625
650, 4, 0.25, 0.0625
651, 0, 0, 0.125
652, 0.0625, 0, 0.125
653, 0.125, 0, 0.125
654, 0.1875, 0, 0.125
655, 0.25, 0, 0.125
656, 0.3125, 0, 0.125
657, 0.375, 0, 0.125
658, 0.4375, 0, 0.125
659, 0.5, 0, 0.125
660, 0.5625, 0, 0.125
661, 0.625, 0, 0.125
662, 0.6875, 0, 0.125
663, 0.75, 0, 0.125
664, 0.8125, 0, 0.125
665, 0.875, 0, 0.125
666, 0.9375, 0, 0.125
667, 1, 0, 0.125
668, 1.0625, 0, 0.125
669, 1.125, 0, 0.125
670, 1.1875, 0, 0.125
671, 1.25, 0, 0.125
672, 1.3125, 0, 0.125
673, 1.375, 0, 0.125
674, 1.4375, 0, 0.125
675, 1.5, 0, 0.125
676, 1.5625, 0, 0.125
677, 1.625, 0, 0.125
678, 1.6875, 0, 0.125
679, 1.75, 0, 0.125
680, 1.8125, 0, 0.125
681, 1.875, 0, 0.125
682, 1.9375, 0, 0.125
683, 2, 0, 0.125
684, 2.0625, 0, 0.125
685, 2.125, 0, 0.125
686, 2.1875, 0, 0.125
687, 2.25, 0, 0.125
688, 2.3125, 0, 0.125
689, 2.375, 0, 0.125
690, 2.4375, 0, 0.125
691, 2.5, 0, 0.125
692, 2.5625, 0, 0.125
693, 2.625, 0, 0.125
694, 2.6875, 0, 0.125
695, 2.75, 0, 0.125
696, 2.8125, 0, 0.125
697, 2.875, 0, 0.125
698, 2.9375, 0, 0.125
699, 3, 0, 0.125
700, 3.0625, 0, 0.125
701, 3.125, 0, 0.125
702, 3.1875, 0, 0.125
703, 3.25, 0, 0.125
704, 3.3125, 0, 0.125
705, 3.375, 0, 0.125
706, 3.4375, 0, 0.125
707, 3.5, 0, 0.125
708, 3.5625, 0, 0.125
709, 3.625, 0, 0.125
710, 3.6875, 0, 0.125
711, 3.75, 0, 0.125
712, 3.8125, 0, 0.125
713, 3.875, 0, 0.125
714, 3.9375, 0, 0.125
715, 4, 0, 0.125
716, 0, 0.0625, 0.125
717, 0.0625, 0.0625, 0.125
718, 0.125, 0.0625, 0.125
719, 0.1875, 0.0625, 0.125
720, 0.25, 0.0625, 0.125
721, 0.3125, 0.0625, 0.125
722, 0.375, 0.0625, 0.125
723, 0.4375, 0.0625, 0.125
724, 0.5, 0.0625, 0.125
725, 0.5625, 0.0625, 0.125
726, 0.625, 0.0625, 0.125
727, 0.6875, 0.0625, 0.125
728, 0.75, 0.0625, 0.125
729, 0.8125, 0.0625, 0.125
730, 0.875, 0.0625, 0.125
731, 0.9375, 0.0625, 0.125
732, 1, 0.0625, 0.125
733, 1.0625, 0.0625, 0.125
734, 1.125, 0.0625, 0.125
735, 1.1875, 0.0625, 0.125
736, 1.25, 0.0625, 0.125
737, 1.3125, 0.0625, 0.125
738, 1.375, 0.0625, 0.125
739, 1.4375, 0.0625, 0.125
740, 1.5, 0.0625, 0.125
741, 1.5625, 0.0625, 0.125
742, 1.625, 0.0625, 0.125
743, 1.6875, 0.0625, 0.125
744, 1.75, 0.0625, 0.125
745, 1.8125, 0.0625, 0.125
746, 1.875, 0.0625, 0.125
747, 1.9375, 0.0625, 0.125
748, 2, 0.0625, 0.125
749, 2.0625, 0.0625, 0.125
750, 2.125, 0.0625, 0.125
751, 2.1875, 0.0625, 0.125
752, 2.25, 0.0625, 0.125
753, 2.3125, 0.0625, 0.125
754, 2.375, 0.0625, 0.125
755, 2.4375, 0.0625, 0.125
756, 2.5, 0.0625, 0.125
757, 2.5625, 0.0625, 0.125
758, 2.625, 0.0625, 0.125
759, 2.6875, 0.0625, 0.125
760, 2.75, 0.0625, 0.125
761, 2.8125, 0.0625, 0.125
762, 2.875, 0.0625, 0.125
763, 2.9375, 0.0625, 0.125
764, 3, 0.0625, 0.125
765, 3.0625, 0.0625, 0.125
766, 3.125, 0.0625, 0.125
767, 3.1875, 0.0625, 0.125
768, 3.25, 0.0625, 0.125
769, 3.3125, 0.0625, 0.125
770, 3.375, 0.0625, 0.125
771, 3.4375, 0.0625, 0.125
772, 3.5, 0.0625, 0.125
773, 3.5625, 0.0625, 0.125
774, 3.625, 0.0625, 0.125
775, 3.6875, 0.0625, 0.125
776, 3.75, 0.0625, 0.125
777, 3.8125, 0.0625, 0.125
778, 3.875, 0.0625, 0.125
779, 3.9375, 0.0625, 0.125
780, 4, 0.0625, 0.125
781, 0, 0.125, 0.125
782, 0.0625, 0.125, 0.125
783, 0.125, 0.125, 0.125
784, 0.1875, 0.125, 0.125
785, 0.25, 0.125, 0.125
786, 0.3125, 0.125, 0.125
787, 0.375, 0.125, 0.125
788, 0.4375, 0.125, 0.125
789, 0.5, 0.125, 0.125
790, 0.5625, 0.125, 0.125
791, 0.625, 0.125, 0.125
792, 0.6875, 0.125, 0.125
793, 0.75, 0.125, 0.125
794, 0.8125, 0.125, 0.125
795, 0.875, 0.125, 0.125
796, 0.9375, 0.125, 0.125
797, 1, 0.125, 0.125
798, 1.0625, 0.125, 0.125
799, 1.125, 0.125, 0.125
800, 1.1875, 0.125, 0.125
801, 1.25, 0.125, 0.125
802, 1.3125, 0.125, 0.125
803, 1.375, 0.125, 0.125
804, 1.4375, 0.125, 0.125
805, 1.5, 0.125, 0.125
806, 1.5625, 0.125, 0.125
807, 1.625, 0.125, 0.125
808, 1.6875, 0.125, 0.125
809, 1.75, 0.125, 0.125
810, 1.8125, 0.125, 0.125
811, 1.875, 0.125, 0.125
812, 1.9375, 0.125, 0.125
813, 2, 0.125, 0.125
814, 2.0625, 0.125, 0.125
815, 2.125, 0.125, 0.125
816, 2.1875, 0.125, 0.125
817, 2.25, 0.125, 0.125
818, 2.3125, 0.125, 0.125
819, 2.375, 0.125, 0.125
820, 2.4375, 0.125, 0.125
821, 2.5, 0.125, 0.125
822, 2.5625, 0.125, 0.125
823, 2.625, 0.125, 0.125
824, 2.6875, 0.125, 0.125
825, 2.75, 0.125, 0.125
826, 2.8125, 0.125, 0.125
827, 2.875, 0.125, 0.125
828, 2.9375, 0.125, 0.125
829, 3, 0.125, 0.125
830, 3.0625, 0.125, 0.125
831, 3.125, 0.125, 0.125
832, 3.1875, 0.125, 0.125
833, 3.25, 0.125, 0.125
834, 3.3125, 0.125, 0.125
835, 3.375, 0.125, 0.125
836, 3.4375, 0.125, 0.125
837, 3.5, 0.125, 0.125
838, 3.5625, 0.125, 0.125
839, 3.625, 0.125, 0.125
840, 3.6875, 0.125, 0.125
841, 3.75, 0.125, 0.125
842, 3.8125, 0.125, 0.125
843, 3.875, 0.125, 0.125
844, 3.9375, 0.125, 0.125
845, 4, 0.125, 0.125
846, 0, 0.1875, 0.125
847, 0.0625, 0.1875, 0.125
848, 0.125, 0.1875, 0.125
849, 0.1875, 0.1875, 0.125
850, 0.25, 0.1875, 0.125
851, 0.3125, 0.1875, 0.125
852, 0.375, 0.1875, 0.125
853, 0.4375, 0.1875, 0.125
854, 0.5, 0.1875, 0.125
855, 0.5625, 0.1875, 0.125
856, 0.625, 0.1875, 0.125
857, 0.6875, 0.1875, 0.125
858, 0.75, 0.1875, 0.125
859, 0.8125, 0.1875, 0.125
860, 0.875, 0.1875, 0.125
861, 0.9375, 0.1875, 0.125
862, 1, 0.1875, 0.125
863, 1.0625, 0.1875, 0.125
864, 1.125, 0.1875, 0.125
865, 1.1875, 0.1875, 0.125
866, 1.25, 0.1875, 0.125
867, 1.3125, 0.1875, 0.125
868, 1.375, 0.1875, 0.125
869, 1.4375, 0.1875, 0.125
870, 1.5, 0.1875, 0.125
871, 1.5625, 0.1875, 0.125
872, 1.625, 0.1875, 0.125
873, 1.6875, 0.1875, 0.125
874, 1.75, 0.1875, 0.125
875, 1.8125, 0.1875, 0.125
876, 1.875, 0.1875, 0.125
877, 1.9375, 0.1875, 0.125
878, 2, 0.1875, 0.125
879, 2.0625, 0.1875, 0.125
880, 2.125, 0.1875, 0.125
881, 2.1875, 0.1875, 0.125
882, 2.25, 0.1875, 0.125
883, 2.3125, 0.1875, 0.125
884, 2.375, 0.1875, 0.125
885, 2.4375, 0.1875, 0.125
886, 2.5, 0.1875, 0.125
887, 2.5625, 0.1875, 0.125
888, 2.625, 0.1875, 0.125
889, 2.6875, 0.1875, 0.125
890, 2.75, 0.1875, 0.125
891, 2.8125, 0.1875, 0.125
892, 2.875, 0.1875, 0.125
893, 2.9375, 0.1875, 0.125
894, 3, 0.1875, 0.125
895, 3.0625, 0.1875, 0.125
896, 3.125, 0.1875, 0.125
897, 3.1875, 0.1875, 0.125
898, 3.25, 0.1875, 0.125
899, 3.3125, 0.1875, 0.125
900, 3.375, 0.1875, 0.125
901, 3.4375, 0.1875, 0.125
902, 3.5, 0.1875, 0.125
903, 3.5625, 0.1875, 0.125
904, 3.625, 0.1875, 0.125
905, 3.6875, 0.1875, 0.125
906, 3.75, 0.1875, 0.125
907, 3.8125, 0.1875, 0.125
908, 3.875, 0.1875, 0.125
909, 3.9375, 0.1875, 0.125
910, 4, 0.1875, 0.125
911, 0, 0.25, 0.125
912, 0.0625, 0.25, 0.125
913, 0.125, 0.25, 0.125
914, 0.1875, 0.25, 0.125
915, 0.25, 0.25, 0.125
916, 0.3125, 0.25, 0.125
917, 0.375, 0.25, 0.125
918, 0.4375, 0.25, 0.125
919, 0.5, 0.25, 0.125
920, 0.5625, 0.25, 0.125
921, 0.625, 0.25, 0.125
922, 0.6875, 0.25, 0.125
923, 0.75, 0.25, 0.125
924, 0.8125, 0.25, 0.125
925, 0.875, 0.25, 0.125
926, 0.9375, 0.25, 0.125
927, 1, 0.25, 0.125
928, 1.0625, 0.25, 0.125
929, 1.125, 0.25, 0.125
930, 1.1875, 0.25, 0.125
931, 1.25, 0.25, 0.125
932, 1.3125, 0.25, 0.125
933, 1.375, 0.25, 0.125
934, 1.4375, 0.25, 0.125
935, 1.5, 0.25, 0.125
936, 1.5625, 0.25, 0.125
937, 1.625, 0.25, 0.125
938, 1.6875, 0.25, 0.125
939, 1.75, 0.25, 0.125
940, 1.8125, 0.25, 0.125
941, 1.875, 0.25, 0.125
942, 1.9375, 0.25, 0.125
943, 2, 0.25, 0.125
944, 2.0625, 0.25, 0.125
945, 2.125, 0.25, 0.125
946, 2.1875, 0.25, 0.125
947, 2.25, 0.25, 0.125
948, 2.3125, 0.25, 0.125
949, 2.375, 0.25, 0.125
950, 2.4375, 0.25, 0.125
951, 2.5, 0.25, 0.125
952, 2.5625, 0.25, 0.125
953, 2.625, 0.25, 0.125
954, 2.6875, 0.25, 0.125
955, 2.75, 0.25, 0.125
956, 2.8125, 0.25, 0.125
957, 2.875, 0.25, 0.125
958, 2.9375, 0.25, 0.125
959, 3, 0.25, 0.125
960, 3.0625, 0.25, 0.125
961, 3.125, 0.25, 0.125
962, 3.1875, 0.25, 0.125
963, 3.25, 0.25, 0.125
964, 3.3125, 0.25, 0.125
965, 3.375, 0.25, 0.125
966, 3.4375, 0.25, 0.125
967, 3.5, 0.25, 0.125
968, 3.5625, 0.25, 0.125
969, 3.625, 0.25, 0.125
970, 3.6875, 0.25, 0.125
971, 3.75, 0.25, 0.125
972, 3.8125, 0.25, 0.125
973, 3.875, 0.25, 0.125
974, 3.9375, 0.25, 0.125
975, 4, 0.25, 0.125
976, 0, 0, 0.1875
977, 0.0625, 0, 0.1875
978, 0.125, 0, 0.1875
979, 0.1875, 0, 0.1875
980, 0.25, 0, 0.1875
981, 0.3125, 0, 0.1875
982, 0.375, 0, 0.1875
983, 0.4375, 0, 0.1875
984, 0.5, 0, 0.1875
985, 0.5625, 0, 0.1875
986, 0.625, 0, 0.1875
987, 0.6875, 0, 0.1875
988, 0.75, 0, 0.1875
989, 0.8125, 0, 0.1875
990, 0.875, 0, 0.1875
991, 0.9375, 0, 0.1875
992, 1, 0, 0.1875
993, 1.0625, 0, 0.1875
994, 1.125, 0, 0.1875
995, 1.1875, 0, 0.1875
996, 1.25, 0, 0.1875
997, 1.3125, 0, 0.1875
998, 1.375, 0, 0.1875
999, 1.4375, 0, 0.1875
1000, 1.5, 0, 0.1875
1001, 1.5625, 0, 0.1875
1002, 1.625, 0, 0.1875
1003, 1.6875, 0, 0.1875
1004, 1.75, 0, 0.1875
1005, 1.8125, 0, 0.1875
1006, 1.875, 0, 0.1875
1007, 1.9375, 0, 0.1875
1008, 2, 0, 0.1875
1009, 2.0625, 0, 0.1875
1010, 2.125, 0, 0.1875
1011, 2.1875, 0, 0.1875
1012, 2.25, 0, 0.1875
1013, 2.3125, 0, 0.1875
1014, 2.375, 0, 0.1875
1015, 2.4375, 0, 0.1875
1016, 2.5, 0, 0.1875
1017, 2.5625, 0, 0.1875
1018, 2.625, 0, 0.1875
1019, 2.6875, 0, 0.1875
1020, 2.75, 0, 0.1875
1021, 2.8125, 0, 0.1875
1022, 2.875, 0, 0.1875
1023, 2.9375, 0, 0.1875
1024, 3, 0, 0.1875
1025, 3.0625, 0, 0.1875
1026, 3.125, 0, 0.1875
1027, 3.1875, 0, 0.1875
1028, 3.25, 0, 0.1875
1029, 3.3125, 0, 0.1875
1030, 3.375, 0, 0.1875
1031, 3.4375, 0, 0.1875
1032, 3.5, 0, 0.1875
1033, 3.5625, 0, 0.1875
1034, 3.625, 0, 0.1875
1035, 3.6875, 0, 0.1875
1036, 3.75, 0, 0.1875
1037, 3.8125, 0, 0.1875
1038, 3.875, 0, 0.1875
1039, 3.9375, 0, 0.1875
1040, 4, 0, 0.1875
1041, 0, 0.0625, 0.1875
1042, 0.0625, 0.0625, 0.1875
1043, 0.125, 0.0625, 0.1875
1044, 0.1875, 0.0625, 0.1875
1045, 0.25, 0.0625, 0.1875
1046, 0.3125, 0.0625, 0.1875
1047, 0.375, 0.0625, 0.1875
1048, 0.4375, 0.0625, 0.1875
1049, 0.5, 0.0625, 0.1875
1050, 0.5625, 0.0625, 0.1875
1051, 0.625, 0.0625, 0.1875
1052, 0.6875, 0.0625, 0.1875
1053, 0.75, 0.0625, 0.1875
1054, 0.8125, 0.0625, 0.1875
1055, 0.875, 0.0625, 0.1875
1056, 0.9375, 0.0625, 0.1875
1057, 1, 0.0625, 0.1875
1058, 1.0625, 0.0625, 0.1875
1059, 1.125, 0.0625, 0.1875
1060, 1.1875, 0.0625, 0.1875
1061, 1.25, 0.0625, 0.1875
1062, 1.3125, 0.0625, 0.1875
1063, 1.375, 0.0625, 0.1875
1064, 1.4375, 0.0625, 0.1875
1065, 1.5, 0.0625, 0.1875
1066, 1.5625, 0.0625, 0.1875
1067, 1.625, 0.0625, 0.1875
1068, 1.6875, 0.0625, 0.1875
1069, 1.75, 0.0625, 0.1875
1070, 1.8125, 0.0625, 0.1875
1071, 1.875, 0.0625, 0.1875
1072, 1.9375, 0.0625, 0.1875
1073, 2, 0.0625, 0.1875
1074, 2.0625, 0.0625, 0.1875
1075, 2.125, 0.0625, 0.1875
1076, 2.1875, 0.0625, 0.1875
1077, 2.25, 0.0625, 0.1875
1078, 2.3125, 0.0625, 0.1875
1079, 2.375, 0.0625, 0.1875
1080, 2.4375, 0.0625, 0.1875
1081, 2.5, 0.0625, 0.1875
1082, 2.5625, 0.0625, 0.1875
1083, 2.625, 0.0625, 0.1875
1084, 2.6875, 0.0625, 0.1875
1085, 2.75, 0.0625, 0.1875
1086, 2.8125, 0.0625, 0.1875
1087, 2.875, 0.0625, 0.1875
1088, 2.9375, 0.0625, 0.1875
1089, 3, 0.0625, 0.1875
1090, 3.0625, 0.0625, 0.1875
1091, 3.125, 0.0625, 0.1875
1092, 3.1875, 0.0625, 0.1875
1093, 3.25, 0.0625, 0.1875
1094, 3.3125, 0.0625, 0.1875
1095, 3.375, 0.0625, 0.1875
1096, 3.4375, 0.0625, 0.1875
1097, 3.5, 0.0625, 0.1875
1098, 3.5625, 0.0625, 0.1875
1099, 3.625, 0.0625, 0.1875
1100, 3.6875, 0.0625, 0.1875
1101, 3.75, 0.0625, 0.1875
1102, 3.8125, 0.0625, 0.1875
1103, 3.875, 0.0625, 0.1875
1104, 3.9375, 0.0625, 0.1875
1105, 4, 0.0625, 0.1875
1106, 0, 0.125, 0.1875
1107, 0.0625, 0.125, 0.1875
1108, 0.125, 0.125, 0.1875
1109, 0.1875, 0.125, 0.1875
1110, 0.25, 0.125, 0.1875
1111, 0.3125, 0.125, 0.1875
1112, 0.375, 0.125, 0.1875
1113, 0.4375, 0.125, 0.1875
1114, 0.5, 0.125, 0.1875
1115, 0.5625, 0.125, 0.1875
1116, 0.625, 0.125, 0.1875
1117, 0.6875, 0.125, 0.1875
1118, 0.75, 0.125, 0.1875
1119, 0.8125, 0.125, 0.1875
1120, 0.875, 0.125, 0.1875
1121, 0.9375, 0.125, 0.1875
1122, 1, 0.125, 0.1875
1123, 1.0625, 0.125, 0.1875
1124, 1.125, 0.125, 0.1875
1125, 1.1875, 0.125, 0.1875
1126, 1.25, 0.125, 0.1875
1127, 1.3125, 0.125, 0.1875
1128, 1.375, 0.125, 0.1875
1129, 1.4375, 0.125, 0.1875
1130, 1.5, 0.125, 0.1875
1131, 1.5625, 0.125, 0.1875
1132, 1.625, 0.125, 0.1875
1133, 1.6875, 0.125, 0.1875
1134, 1.75, 0.125, 0.1875
1135, 1.8125, 0.125, 0.1875
1136, 1.875, 0.125, 0.1875
1137, 1.9375, 0.125, 0.1875
1138, 2, 0.125, 0.1875
1139, 2.0625, 0.125, 0.1875
1140, 2.125, 0.125, 0.1875
1141, 2.1875, 0.125, 0.1875
1142, 2.25, 0.125, 0.1875
1143, 2.3125, 0.125, 0.1875
1144, 2.375, 0.125, 0.1875
1145, 2.4375, 0.125, 0.1875
1146, 2.5, 0.125, 0.1875
1147, 2.5625, 0.125, 0.1875
1148, 2.625, 0.125, 0.1875
1149, 2.6875, 0.125, 0.1875
1150, 2.75, 0.125, 0.1875
1151, 2.8125, 0.125, 0.1875
1152, 2.875, 0.125, 0.1875
1153, 2.9375, 0.125, 0.1875
1154, 3, 0.125, 0.1875
1155, 3.0625, 0.125, 0.1875
1156, 3.125, 0.125, 0.1875
1157, 3.1875, 0.125, 0.1875
1158, 3.25, 0.125, 0.1875
1159, 3.3125, 0.125, 0.1875
1160, 3.375, 0.125, 0.1875
1161, 3.4375, 0.125, 0.1875
1162, 3.5, 0.125, 0.1875
1163, 3.5625, 0.125, 0.1875
1164, 3.625, 0.125, 0.1875
1165, 3.6875, 0.125, 0.1875
1166, 3.75, 0.125, 0.1875
1167, 3.8125, 0.125, 0.1875
1168, 3.875, 0.125, 0.1875
1169, 3.9375, 0.125, 0.1875
1170, 4, 0.125, 0.1875
1171, 0, 0.1875, 0.1875
1172, 0.0625, 0.1875, 0.1875
1173, 0.125, 0.1875, 0.1875
1174, 0.1875, 0.1875, 0.1875
1175, 0.25, 0.1875, 0.1875
1176, 0.3125, 0.1875, 0.1875
1177, 0.375, 0.1875, 0.1875
1178, 0.4375, 0.1875, 0.1875
1179, 0.5, 0.1875, 0.1875
1180, 0.5625, 0.1875, 0.1875
1181, 0.625, 0.1875, 0.1875
1182, 0.6875, 0.1875, 0.1875
1183, 0.75, 0.1875, 0.1875
1184, 0.8125, 0.1875, 0.1875
1185, 0.875, 0.1875, 0.1875
1186, 0.9375, 0.1875, 0.1875
1187, 1, 0.1875, 0.1875
1188, 1.0625, 0.1875, 0.1875
1189, 1.125, 0.1875, 0.1875
1190, 1.1875, 0.1875, 0.1875
1191, 1.25, 0.1875, 0.1875
1192, 1.3125, 0.1875, 0.1875
1193, 1.375, 0.1875, 0.1875
1194, 1.4375, 0.1875, 0.1875
1195, 1.5, 0.1875, 0.1875
1196, 1.5625, 0.1875, 0.1875
1197, 1.625, 0.1875, 0.1875
1198, 1.6875, 0.1875, 0.1875
1199, 1.75, 0.1875, 0.1875
1200, 1.8125, 0.1875, 0.1875
1201, 1.875, 0.1875, 0.1875
1202, 1.9375, 0.1875, 0.1875
1203, 2, 0.1875, 0.1875
1204, 2.0625, 0.1875, 0.1875
1205, 2.125, 0.1875, 0.1875
1206, 2.1875, 0.1875, 0.1875
1207, 2.25, 0.1875, 0.1875
1208, 2.3125, 0.1875, 0.1875
1209, 2.375, 0.1875, 0.1875
1210, 2.4375, 0.1875, 0.1875
1211, 2.5, 0.1875, 0.1875
1212, 2.5625, 0.1875, 0.1875
1213, 2.625, 0.1875, 0.1875
1214, 2.6875, 0.1875, 0.1875
1215, 2.75, 0.1875, 0.1875
1216, 2.8125, 0.1875, 0.1875
1217, 2.875, 0.1875, 0.1875
1218, 2.9375, 0.1875, 0.1875
1219, 3, 0.1875, 0.1875
1220, 3.0625, 0.1875, 0.1875
1221, 3.125, 0.1875, 0.1875
1222, 3.1875, 0.1875, 0.1875
1223, 3.25, 0.1875, 0.1875
1224, 3.3125, 0.1875, 0.1875
1225, 3.375, 0.1875, 0.1875
1226, 3.4375, 0.1875, 0.1875
1227, 3.5, 0.1875, 0.1875
1228, 3.5625, 0.1875, 0.1875
1229, 3.625, 0.1875, 0.1875
1230, 3.6875, 0.1875, 0.1875
1231, 3.75, 0.1875, 0.1875
1232, 3.8125, 0.1875, 0.1875
1233, 3.875, 0.1875, 0.1875
1234, 3.9375, 0.1875, 0.1875
1235, 4, 0.1875, 0.1875
1236, 0, 0.25, 0.1875
1237, 0.0625, 0.25, 0.1875
1238, 0.125, 0.25, 0.1875
1239, 0.1875, 0.25, 0.1875
1240, 0.25, 0.25, 0.1875
1241, 0.3125, 0.25, 0.1875
1242, 0.375, 0.25, 0.1875
1243, 0.4375, 0.25, 0.1875
1244, 0.5, 0.25, 0.1875
1245, 0.5625, 0.25, 0.1875
1246, 0.625, 0.25, 0.1875
1247, 0.6875, 0.25, 0.1875
1248, 0.75, 0.25, 0.1875
1249, 0.8125, 0.25, 0.1875
1250, 0.875, 0.25, 0.1875
1251, 0.9375, 0.25, 0.1875
1252, 1, 0.25, 0.1875
1253, 1.0625, 0.25, 0.1875
1254, 1.125, 0.25, 0.1875
1255, 1.1875, 0.25, 0.1875
1256, 1.25, 0.25, 0.1875
1257, 1.3125, 0.25, 0.1875
1258, 1.375, 0.25, 0.1875
1259, 1.4375, 0.25, 0.1875
1260, 1.5, 0.25, 0.1875
1261, 1.5625, 0.25, 0.1875
1262, 1.625, 0.25, 0.1875
1263, 1.6875, 0.25, 0.1875
1264, 1.75, 0.25, 0.1875
1265, 1.8125, 0.25, 0.1875
1266, 1.875, 0.25, 0.1875
1267, 1.9375, 0.25, 0.1875
1268, 2, 0.25, 0.1875
1269, 2.0625, 0.25, 0.1875
1270, 2.125, 0.25, 0.1875
1271, 2.1875, 0.25, 0.1875
1272, 2.25, 0.25, 0.1875
1273, 2.3125, 0.25, 0.1875
1274, 2.375, 0.25, 0.1875
1275, 2.4375, 0.25, 0.1875
1276, 2.5, 0.25, 0.1875
1277, 2.5625, 0.25, 0.1875
1278, 2.625, 0.25, 0.1875
1279, 2.6875, 0.25, 0.1875
1280, 2.75, 0.25, 0.1875
1281, 2.8125, 0.25, 0.1875
1282, 2.875, 0.25, 0.1875
1283, 2.9375, 0.25, 0.1875
1284, 3, 0.25, 0.1875
1285, 3.0625, 0.25, 0.1875
1286, 3.125, 0.25, 0.1875
1287, 3.1875, 0.25, 0.1875
1288, 3.25, 0.25, 0.1875
1289, 3.3125, 0.25, 0.1875
1290, 3.375, 0.25, 0.1875
1291, 3.4375, 0.25, 0.1875
1292, 3.5, 0.25, 0.1875
1293, 3.5625, 0.25, 0.1875
1294, 3.625, 0.25, 0.1875
1295, 3.6875, 0.25, 0.1875
1296, 3.75, 0.25, 0.1875
1297, 3.8125, 0.25, 0.1875
1298, 3.875, 0.25, 0.1875
1299, 3.9375, 0.25, 0.1875
1300, 4, 0.25, 0.1875
1301, 0, 0, 0.25
1302, 0.0625, 0, 0.25
1303, 0.125, 0, 0.25
1304, 0.1875, 0, 0.25
1305, 0.25, 0, 0.25
1306, 0.3125, 0, 0.25
1307, 0.375, 0, 0.25
1308, 0.4375, 0, 0.25
1309, 0.5, 0, 0.25
1310, 0.5625, 0, 0.25
1311, 0.625, 0, 0.25
1312, 0.6875, 0, 0.25
1313, 0.75, 0, 0.25
1314, 0.8125, 0, 0.25
1315, 0.875, 0, 0.25
1316, 0.9375, 0, 0.25
1317, 1, 0, 0.25
1318, 1.0625, 0, 0.25
1319, 1.125, 0, 0.25
1320, 1.1875, 0, 0.25
1321, 1.25, 0, 0.25
1322, 1.3125, 0, 0.25
1323, 1.375, 0, 0.25
1324, 1.4375, 0, 0.25
1325, 1.5, 0, 0.25
1326, 1.5625, 0, 0.25
1327, 1.625, 0, 0.25
1328, 1.6875, 0, 0.25
1329, 1.75, 0, 0.25
1330, 1.8125, 0, 0.25
1331, 1.875, 0, 0.25
1332, 1.9375, 0, 0.25
1333, 2, 0, 0.25
1334, 2.0625, 0, 0.25
1335, 2.125, 0, 0.25
1336, 2.1875, 0, 0.25
1337, 2.25, 0, 0.25
1338, 2.3125, 0, 0.25
1339, 2.375, 0, 0.25
1340, 2.4375, 0, 0.25
1341, 2.5, 0, 0.25
1342, 2.5625, 0, 0.25
1343, 2.625, 0, 0.25
1344, 2.6875, 0, 0.25
1345, 2.75, 0, 0.25
1346, 2.8125, 0, 0.25
1347, 2.875, 0, 0.25
1348, 2.9375, 0, 0.25
1349, 3, 0, 0.25
1350, 3.0625, 0, 0.25
1351, 3.125, 0, 0.25
1352, 3.1875, 0, 0.25
1353, 3.25, 0, 0.25
1354, 3.3125, 0, 0.25
1355, 3.375, 0, 0.25
1356, 3.4375, 0, 0.25
1357, 3.5, 0, 0.25
1358, 3.5625, 0, 0.25
1359, 3.625, 0, 0.25
1360, 3.6875, 0, 0.25
1361, 3.75, 0, 0.25
1362, 3.8125, 0, 0.25
1363, 3.875, 0, 0.25
1364, 3.9375, 0, 0.25
1365, 4, 0, 0.25
1366, 0, 0.0625, 0.25
1367, 0.0625, 0.0625, 0.25
1368, 0.125, 0.0625, 0.25
1369, 0.1875, 0.0625, 0.25
1370, 0.25, 0.0625, 0.25
1371, 0.3125, 0.0625, 0.25
1372, 0.375, 0.0625, 0.25
1373, 0.4375, 0.0625, 0.25
1374, 0.5, 0.0625, 0.25
1375, 0.5625, 0.0625, 0.25
1376, 0.625, 0.0625, 0.25
1377, 0.6875, 0.0625, 0.25
1378, 0.75, 0.0625, 0.25
1379, 0.8125, 0.0625, 0.25
1380, 0.875, 0.0625, 0.25
1381, 0.9375, 0.0625, 0.25
1382, 1, 0.0625, 0.25
1383, 1.0625, 0.0625, 0.25
1384, 1.125, 0.0625, 0.25
1385, 1.1875, 0.0625, 0.25
1386, 1.25, 0.0625, 0.25
1387, 1.3125, 0.0625, 0.25
1388, 1.375, 0.0625, 0.25
1389, 1.4375, 0.0625, 0.25
1390, 1.5, 0.0625, 0.25
1391, 1.5625, 0.0625, 0.25
1392, 1.625, 0.0625, 0.25
1393, 1.6875, 0.0625, 0.25
1394, 1.75, 0.0625, 0.25
1395, 1.8125, 0.0625, 0.25
1396, 1.875, 0.0625, 0.25
1397, 1.9375, 0.0625, 0.25
1398, 2, 0.0625, 0.25
1399, 2.0625, 0.0625, 0.25
1400, 2.125, 0.0625, 0.25
1401, 2.1875, 0.0625, 0.25
1402, 2.25, 0.0625, 0.25
1403, 2.3125, 0.0625, 0.25
1404, 2.375, 0.0625, 0.25
1405, 2.4375, 0.0625, 0.25
1406, 2.5, 0.0625, 0.25
1407, 2.5625, 0.0625, 0.25
1408, 2.625, 0.0625, 0.25
1409, 2.6875, 0.0625, 0.25
1410, 2.75, 0.0625, 0.25
1411, 2.8125, 0.0625, 0.25
1412, 2.875, 0.0625, 0.25
1413, 2.9375, 0.0625, 0.25
1414, 3, 0.0625, 0.25
1415, 3.0625, 0.0625, 0.25
1416, 3.125, 0.0625, 0.25
1417, 3.1875, 0.0625, 0.25
1418, 3.25, 0.0625, 0.25
1419, 3.3125, 0.0625, 0.25
1420, 3.375, 0.0625, 0.25
1421, 3.4375, 0.0625, 0.25
1422, 3.5, 0.0625, 0.25
1423, 3.5625, 0.0625, 0.25
1424, 3.625, 0.0625, 0.25
1425, 3.6875, 0.0625, 0.25
1426, 3.75, 0.0625, 0.25
1427, 3.8125, 0.0625, 0.25
1428, 3.875, 0.0625, 0.25
1429, 3.9375, 0.0625, 0.25
1430, 4, 0.0625, 0.25
1431, 0, 0.125, 0.25
1432, 0.0625, 0.125, 0.25
1433, 0.125, 0.125, 0.25
1434, 0.1875, 0.125, 0.25
1435, 0.25, 0.125, 0.25
1436, 0.3125, 0.125, 0.25
1437, 0.375, 0.125, 0.25
1438, 0.4375, 0.125, 0.25
1439, 0.5, 0.125, 0.25
1440, 0.5625, 0.125, 0.25
1441, 0.625, 0.125, 0.25
1442, 0.6875, 0.125, 0.25
1443, 0.75, 0.125, 0.25
1444, 0.8125, 0.125, 0.25
1445, 0.875, 0.125, 0.25
1446, 0.9375, 0.125, 0.25
1447, 1, 0.125, 0.25
1448, 1.0625, 0.125, 0.25
1449, 1.125, 0.125, 0.25
1450, 1.1875, 0.125, 0.25
1451, 1.25, 0.125, 0.25
1452, 1.3125, 0.125, 0.25
1453, 1.375, 0.125, 0.25
1454, 1.4375, 0.125, 0.25
1455, 1.5, 0.125, 0.25
1456, 1.5625, 0.125, 0.25
1457, 1.625, 0.125, 0.25
1458, 1.6875, 0.125, 0.25
1459, 1.75, 0.125, 0.25
1460, 1.8125, 0.125, 0.25
1461, 1.875, 0.125, 0.25
1462, 1.9375, 0.125, 0.25
1463, 2, 0.125, 0.25
1464, 2.0625, 0.125, 0.25
1465, 2.125, 0.125, 0.25
1466, 2.1875, 0.125, 0.25
1467, 2.25, 0.125, 0.25
1468, 2.3125, 0.125, 0.25
1469, 2.375, 0.125, 0.25
1470, 2.4375, 0.125, 0.25
1471, 2.5, 0.125, 0.25
1472, 2.5625, 0.125, 0.25
1473, 2.625, 0.125, 0.25
1474, 2.6875, 0.125, 0.25
1475, 2.75, 0.125, 0.25
1476, 2.8125, 0.125, 0.25
1477, 2.875, 0.125, 0.25
1478, 2.9375, 0.125, 0.25
1479, 3, 0.125, 0.25
1480, 3.0625, 0.125, 0.25
1481, 3.125, 0.125, 0.25
1482, 3.1875, 0.125, 0.25
1483, 3.25, 0.125, 0.25
1484, 3.3125, 0.125, 0.25
1485, 3.375, 0.125, 0.25
1486, 3.4375, 0.125, 0.25
1487, 3.5, 0.125, 0.25
1488, 3.5625, 0.125, 0.25
1489, 3.625, 0.125, 0.25
1490, 3.6875, 0.125, 0.25
1491, 3.75, 0.125, 0.25
1492, 3.8125, 0.125, 0.25
1493, 3.875, 0.125, 0.25
1494, 3.9375, 0.125, 0.25
1495, 4, 0.125, 0.25
1496, 0, 0.1875, 0.25
1497, 0.0625, 0.1875, 0.25
1498, 0.125, 0.1875, 0.25
1499, 0.1875, 0.1875, 0.25
1500, 0.25, 0.1875, 0.25
1501, 0.3125, 0.1875, 0.25
1502, 0.375, 0.1875, 0.25
1503, 0.4375, 0.1875, 0.25
1504, 0.5, 0.1875, 0.25
1505, 0.5625, 0.1875, 0.25
1506, 0.625, 0.1875, 0.25
1507, 0.6875, 0.1875, 0.25
1508, 0.75, 0.1875, 0.25
1509, 0.8125, 0.1875, 0.25
1510, 0.875, 0.1875, 0.25
1511, 0.9375, 0.1875, 0.25
1512, 1, 0.1875, 0.25
1513, 1.0625, 0.1875, 0.25
1514, 1.125, 0.1875, 0.25
1515, 1.1875, 0.1875, 0.25
1516, 1.25, 0.1875, 0.25
1517, 1.3125, 0.1875, 0.25
1518, 1.375, 0.1875, 0.25
1519, 1.4375, 0.1875, 0.25
1520, 1.5, 0.1875, 0.25
1521, 1.5625, 0.1875, 0.25
1522, 1.625, 0.1875, 0.25
1523, 1.6875, 0.1875, 0.25
1524, 1.75, 0.1875, 0.25
1525, 1.8125, 0.1875, 0.25
1526, 1.875, 0.1875, 0.25
1527, 1.9375, 0.1875, 0.25
1528, 2, 0.1875, 0.25
1529, 2.0625, 0.1875, 0.25
1530, 2.125, 0.1875, 0.25
1531, 2.1875, 0.1875, 0.25
1532, 2.25, 0.1875, 0.25
1533, 2.3125, 0.1875, 0.25
1534, 2.375, 0.1875, 0.25
1535, 2.4375, 0.1875, 0.25
1536, 2.5, 0.1875, 0.25
1537, 2.5625, 0.1875, 0.25
1538, 2.625, 0.1875, 0.25
1539, 2.6875, 0.1875, 0.25
1540, 2.75, 0.1875, 0.25
1541, 2.8125, 0.1875, 0.25
1542, 2.875, 0.1875, 0.25
1543, 2.9375, 0.1875, 0.25
1544, 3, 0.1875, 0.25
1545, 3.0625, 0.1875, 0.25
1546, 3.125, 0.1875, 0.25
1547, 3.1875, 0.1875, 0.25
1548, 3.25, 0.1875, 0.25
1549, 3.3125, 0.1875, 0.25
1550, 3.375, 0.1875, 0.25
1551, 3.4375, 0.1875, 0.25
1552, 3.5, 0.1875, 0.25
1553, 3.5625, 0.1875, 0.25
1554, 3.625, 0.1875, 0.25
1555, 3.6875, 0.1875, 0.25
1556, 3.75, 0.1875, 0.25
1557, 3.8125, 0.1875, 0.25
1558, 3.875, 0.1875, 0.25
1559, 3.9375, 0.1875, 0.25
1560, 4, 0.1875, 0.25
1561, 0, 0.25, 0.25
1562, 0.0625, 0.25, 0.25
1563, 0.125, 0.25, 0.25
1564, 0.1875, 0.25, 0.25
1565, 0.25, 0.25, 0.25
1566, 0.3125, 0.25, 0.25
1567, 0.375, 0.25, 0.25
1568, 0.4375, 0.25, 0.25
1569, 0.5, 0.25, 0.25
1570, 0.5625, 0.25, 0.25
1571, 0.625, 0.25, 0.25
1572, 0.6875, 0.25, 0.25
1573, 0.75, 0.25, 0.25
1574, 0.8125, 0.25, 0.25
1575, 0.875, 0.25, 0.25
1576, 0.9375, 0.25, 0.25
1577, 1, 0.25, 0.25
1578, 1.0625, 0.25, 0.25
1579, 1.125, 0.25, 0.25
1580, 1.1875, 0.25, 0.25
1581, 1.25, 0.25, 0.25
1582, 1.3125, 0.25, 0.25
1583, 1.375, 0.25, 0.25
1584, 1.4375, 0.25, 0.25
1585, 1.5, 0.25, 0.25
1586, 1.5625, 0.25, 0.25
1587, 1.625, 0.25, 0.25
1588, 1.6875, 0.25, 0.25
1589, 1.75, 0.25, 0.25
1590, 1.8125, 0.25, 0.25
1591, 1.875, 0.25, 0.25
1592, 1.9375, 0.25, 0.25
1593, 2, 0.25, 0.25
1594, 2.0625, 0.25, 0.25
1595, 2.125, 0.25, 0.25
1596, 2.1875, 0.25, 0.25
1597, 2.25, 0.25, 0.25
1598, 2.3125, 0.25, 0.25
1599, 2.375, 0.25, 0.25
1600, 2.4375, 0.25, 0.25
1601, 2.5, 0.25, 0.25
1602, 2.5625, 0.25, 0.25
1603, 2.625, 0.25, 0.25
1604, 2.6875, 0.25, 0.25
1605, 2.75, 0.25, 0.25
1606, 2.8125, 0.25, 0.25
1607, 2.875, 0.25, 0.25
1608, 2.9375, 0.25, 0.25
1609, 3, 0.25, 0.25
1610, 3.0625, 0.25, 0.25
1611, 3.125, 0.25, 0.25
1612, 3.1875, 0.25, 0.25
1613, 3.25, 0.25, 0.25
1614, 3.3125, 0.25, 0.25
1615, 3.375, 0.25, 0.25
1616, 3.4375, 0.25, 0.25
1617, 3.5, 0.25, 0.25
1618, 3.5625, 0.25, 0.25
1619, 3.625, 0.25, 0.25
1620, 3.6875, 0.25, 0.25
1621, 3.75, 0.25, 0.25
1622, 3.8125, 0.25, 0.25
1623, 3.875, 0.25, 0.25
1624, 3.9375, 0.25, 0.25
1625, 4, 0.25, 0.25
1626, 0, 0, 0.3125
1627, 0.0625, 0, 0.3125
1628, 0.125, 0, 0.3125
1629, 0.1875, 0, 0.3125
1630, 0.25, 0, 0.3125
1631, 0.3125, 0, 0.3125
1632, 0.375, 0, 0.3125
1633, 0.4375, 0, 0.3125
1634, 0.5, 0, 0.3125
1635, 0.5625, 0, 0.3125
1636, 0.625, 0, 0.3125
1637, 0.6875, 0, 0.3125
1638, 0.75, 0, 0.3125
1639, 0.8125, 0, 0.3125
1640, 0.875, 0, 0.3125
1641, 0.9375, 0, 0.3125
1642, 1, 0, 0.3125
1643, 1.0625, 0, 0.3125
1644, 1.125, 0, 0.3125
1645, 1.1875, 0, 0.3125
1646, 1.25, 0, 0.3125
1647, 1.3125, 0, 0.3125
1648, 1.375, 0, 0.3125
1649, 1.4375, 0, 0.3125
1650, 1.5, 0, 0.3125
1651, 1.5625, 0, 0.3125
1652, 1.625, 0, 0.3125
1653, 1.6875, 0, 0.3125
1654, 1.75, 0, 0.3125
1655, 1.8125, 0, 0.3125
1656, 1.875, 0, 0.3125
1657, 1.9375, 0, 0.3125
1658, 2, 0, 0.3125
1659, 2.0625, 0, 0.3125
1660, 2.125, 0, 0.3125
1661, 2.1875, 0, 0.3125
1662, 2.25, 0, 0.3125
1663, 2.3125, 0, 0.3125
1664, 2.375, 0, 0.3125
1665, 2.4375, 0, 0.3125
1666, 2.5, 0, 0.3125
1667, 2.5625, 0, 0.3125
1668, 2.625, 0, 0.3125
1669, 2.6875, 0, 0.3125
1670, 2.75, 0, 0.3125
1671, 2.8125, 0, 0.3125
1672, 2.875, 0, 0.3125
1673, 2.9375, 0, 0.3125
1674, 3, 0, 0.3125
1675, 3.0625, 0, 0.3125
1676, 3.125, 0, 0.3125
1677, 3.1875, 0, 0.3125
1678, 3.25, 0, 0.3125
1679, 3.3125, 0, 0.3125
1680, 3.375, 0, 0.3125
1681, 3.4375, 0, 0.3125
1682, 3.5, 0, 0.3125
1683, 3.5625, 0, 0.3125
1684, 3.625, 0, 0.3125
1685, 3.6875, 0, 0.3125
1686, 3.75, 0, 0.3125
1687, 3.8125, 0, 0.3125
1688, 3.875, 0, 0.3125
1689, 3.9375, 0, 0.3125
1690, 4, 0, 0.3125
1691, 0, 0.0625, 0.3125
1692, 0.0625, 0.0625, 0.3125
1693, 0.125, 0.0625, 0.3125
1694, 0.1875, 0.0625, 0.3125
1695, 0.25, 0.0625, 0.3125
1696, 0.3125, 0.0625, 0.3125
1697, 0.375, 0.0625, 0.3125
1698, 0.4375, 0.0625, 0.3125
1699, 0.5, 0.0625, 0.3125
1700, 0.5625, 0.0625, 0.3125
1701, 0.625, 0.0625, 0.3125
1702, 0.6875, 0.0625, 0.3125
1703, 0.75, 0.0625, 0.3125
1704, 0.8125, 0.0625, 0.3125
1705, 0.875, 0.0625, 0.3125
1706, 0.9375, 0.0625, 0.3125
1707, 1, 0.0625, 0.3125
1708, 1.0625, 0.0625, 0.3125
1709, 1.125, 0.0625, 0.3125
1710, 1.1875, 0.0625, 0.3125
1711, 1.25, 0.0625, 0.3125
1712, 1.3125, 0.0625, 0.3125
1713, 1.375, 0.0625, 0.3125
1714, 1.4375, 0.0625, 0.3125
1715, 1.5, 0.0625, 0.3125
1716, 1.5625, 0.0625, 0.3125
1717, 1.625, 0.0625, 0.3125
1718, 1.6875, 0.0625, 0.3125
1719, 1.75, 0.0625, 0.3125
1720, 1.8125, 0.0625, 0.3125
1721, 1.875, 0.0625, 0.3125
1722, 1.9375, 0.0625, 0.3125
1723, 2, 0.0625, 0.3125
1724, 2.0625, 0.0625, 0.3125
1725, 2.125, 0.0625, 0.3125
1726, 2.1875, 0.0625, 0.3125
1727, 2.25, 0.0625, 0.3125
1728, 2.3125, 0.0625, 0.3125
1729, 2.375, 0.0625, 0.3125
1730, 2.4375, 0.0625, 0.3125
1731, 2.5, 0.0625, 0.3125
1732, 2.5625, 0.0625, 0.3125
1733, 2.625, 0.0625, 0.3125
1734, 2.6875, 0.0625, 0.3125
1735, 2.75, 0.0625, 0.3125
1736, 2.8125, 0.0625, 0.3125
1737, 2.875, 0.0625, 0.3125
1738, 2.9375, 0.0625, 0.3125
1739, 3, 0.0625, 0.3125
1740, 3.0625, 0.0625, 0.3125
1741, 3.125, 0.0625, 0.3125
1742, 3.1875, 0.0625, 0.3125
1743, 3.25, 0.0625, 0.3125
1744, 3.3125, 0.0625, 0.3125
1745, 3.375, 0.0625, 0.3125
1746, 3.4375, 0.0625, 0.3125
1747, 3.5, 0.0625, 0.3125
1748, 3.5625, 0.0625, 0.3125
1749, 3.625, 0.0625, 0.3125
1750, 3.6875, 0.0625, 0.3125
1751, 3.75, 0.0625, 0.3125
1752, 3.8125, 0.0625, 0.3125
1753, 3.875, 0.0625, 0.3125
1754, 3.9375, 0.0625, 0.3125
1755, 4, 0.0625, 0.3125
1756, 0, 0.125, 0.3125
1757, 0.0625, 0.125, 0.3125
1758, 0.125, 0.125, 0.3125
1759, 0.1875, 0.125, 0.3125
1760, 0.25, 0.125, 0.3125
1761, 0.3125, 0.125, 0.3125
1762, 0.375, 0.125, 0.3125
1763, 0.4375, 0.125, 0.3125
1764, 0.5, 0.125, 0.3125
1765, 0.5625, 0.125, 0.3125
1766, 0.625, 0.125, 0.3125
1767, 0.6875, 0.125, 0.3125
1768, 0.75, 0.125, 0.3125
1769, 0.8125, 0.125, 0.3125
1770, 0.875, 0.125, 0.3125
1771, 0.9375, 0.125, 0.3125
1772, 1, 0.125, 0.3125
1773, 1.0625, 0.125, 0.3125
1774, 1.125, 0.125, 0.3125
1775, 1.1875, 0.125, 0.3125
1776, 1.25, 0.125, 0.3125
1777, 1.3125, 0.125, 0.3125
1778, 1.375, 0.125, 0.3125
1779, 1.4375, 0.125, 0.3125
1780, 1.5, 0.125, 0.3125
1781, 1.5625, 0.125, 0.3125
1782, 1.625, 0.125, 0.3125
1783, 1.6875, 0.125, 0.3125
1784, 1.75, 0.125, 0.3125
1785, 1.8125, 0.125, 0.3125
1786, 1.875, 0.125, 0.3125
1787, 1.9375, 0.125, 0.3125
1788, 2, 0.125, 0.3125
1789, 2.0625, 0.125, 0.3125
1790, 2.125, 0.125, 0.3125
1791, 2.1875, 0.125, 0.3125
1792, 2.25, 0.125, 0.3125
1793, 2.3125, 0.125, 0.3125
1794, 2.375, 0.125, 0.3125
1795, 2.4375, 0.125, 0.3125
1796, 2.5, 0.125, 0.3125
1797, 2.5625, 0.125, 0.3125
1798, 2.625, 0.125, 0.3125
1799, 2.6875, 0.125, 0.3125
1800, 2.75, 0.125, 0.3125
1801, 2.8125, 0.125, 0.3125
1802, 2.875, 0.125, 0.3125
1803, 2.9375, 0.125, 0.3125
1804, 3, 0.125, 0.3125
1805, 3.0625, 0.125, 0.3125
1806, 3.125, 0.125, 0.3125
1807, 3.1875, 0.125, 0.3125
1808, 3.25, 0.125, 0.3125
1809, 3.3125, 0.125, 0.3125
1810, 3.375, 0.125, 0.3125
1811, 3.4375, 0.125, 0.3125
1812, 3.5, 0.125, 0.3125
1813, 3.5625, 0.125, 0.3125
1814, 3.625, 0.125, 0.3125
1815, 3.6875, 0.125, 0.3125
1816, 3.75, 0.125, 0.3125
1817, 3.8125, 0.125, 0.3125
1818, 3.875, 0.125, 0.3125
1819, 3.9375, 0.125, 0.3125
1820, 4, 0.125, 0.3125
1821, 0, 0.1875, 0.3125
1822, 0.0625, 0.1875, 0.3125
1823, 0.125, 0.1875, 0.3125
1824, 0.1875, 0.1875, 0.3125
1825, 0.25, 0.1875, 0.3125
1826, 0.3125, 0.1875, 0.3125
1827, 0.375, 0.1875, 0.3125
1828, 0.4375, 0.1875, 0.3125
1829, 0.5, 0.1875, 0.3125
1830, 0.5625, 0.1875, 0.3125
1831, 0.625, 0.1875, 0.3125
1832, 0.6875, 0.1875, 0.3125
1833, 0.75, 0.1875, 0.3125
1834, 0.8125, 0.1875, 0.3125
1835, 0.875, 0.1875, 0.3125
1836, 0.9375, 0.1875, 0.3125
1837, 1, 0.1875, 0.3125
1838, 1.0625, 0.1875, 0.3125
1839, 1.125, 0.1875, 0.3125
1840, 1.1875, 0.1875, 0.3125
1841, 1.25, 0.1875, 0.3125
1842, 1.3125, 0.1875, 0.3125
1843, 1.375, 0.1875, 0.3125
1844, 1.4375, 0.1875, 0.3125
1845, 1.5, 0.1875, 0.3125
1846, 1.5625, 0.1875, 0.3125
1847, 1.625, 0.1875, 0.3125
1848, 1.6875, 0.1875, 0.3125
1849, 1.75, 0.1875, 0.3125
1850, 1.8125, 0.1875, 0.3125
1851, 1.875, 0.1875, 0.3125
1852, 1.9375, 0.1875, 0.3125
1853, 2, 0.1875, 0.3125
1854, 2.0625, 0.1875, 0.3125
1855, 2.125, 0.1875, 0.3125
1856, 2.1875, 0.1875, 0.3125
1857, 2.25, 0.1875, 0.3125
1858, 2.3125, 0.1875, 0.3125
1859, 2.375, 0.1875, 0.3125
1860, 2.4375, 0.1875, 0.3125
1861, 2.5, 0.1875, 0.3125
1862, 2.5625, 0.1875, 0.3125
1863, 2.625, 0.1875, 0.3125
1864, 2.6875, 0.1875, 0.3125
1865, 2.75, 0.1875, 0.3125
1866, 2.8125, 0.1875, 0.3125
1867, 2.875, 0.1875, 0.3125
1868, 2.9375, 0.1875, 0.3125
1869, 3, 0.1875, 0.3125
1870, 3.0625, 0.1875, 0.3125
1871, 3.125, 0.1875, 0.3125
1872, 3.1875, 0.1875, 0.3125
1873, 3.25, 0.1875, 0.3125
1874, 3.3125, 0.1875, 0.3125
1875, 3.375, 0.1875, 0.3125
1876, 3.4375, 0.1875, 0.3125
1877, 3.5, 0.1875, 0.3125
1878, 3.5625, 0.1875, 0.3125
1879, 3.625, 0.1875, 0.3125
1880, 3.6875, 0.1875, 0.3125
1881, 3.75, 0.1875, 0.3125
1882, 3.8125, 0.1875, 0.3125
1883, 3.875, 0.1875, 0.3125
1884, 3.9375, 0.1875, 0.3125
1885, 4, 0.1875, 0.3125
1886, 0, 0.25, 0.3125
1887, 0.0625, 0.25, 0.3125
1888, 0.125, 0.25, 0.3125
1889, 0.1875, 0.25, 0.3125
1890, 0.25, 0.25, 0.3125
1891, 0.3125, 0.25, 0.3125
1892, 0.375, 0.25, 0.3125
1893, 0.4375, 0.25, 0.3125
1894, 0.5, 0.25, 0.3125
1895, 0.5625, 0.25, 0.3125
1896, 0.625, 0.25, 0.3125
1897, 0.6875, 0.25, 0.3125
1898, 0.75, 0.25, 0.3125
1899, 0.8125, 0.25, 0.3125
1900, 0.875, 0.25, 0.3125
1901, 0.9375, 0.25, 0.3125
1902, 1, 0.25, 0.3125
1903, 1.0625, 0.25, 0.3125
1904, 1.125, 0.25, 0.3125
1905, 1.1875, 0.25, 0.3125
1906, 1.25, 0.25, 0.3125
1907, 1.3125, 0.25, 0.3125
1908, 1.375, 0.25, 0.3125
1909, 1.4375, 0.25, 0.3125
1910, 1.5, 0.25, 0.3125
1911, 1.5625, 0.25, 0.3125
1912, 1.625, 0.25, 0.3125
1913, 1.6875, 0.25, 0.3125
1914, 1.75, 0.25, 0.3125
1915, 1.8125, 0.25, 0.3125
1916, 1.875, 0.25, 0.3125
1917, 1.9375, 0.25, 0.3125
1918, 2, 0.25, 0.3125
1919, 2.0625, 0.25, 0.3125
1920, 2.125, 0.25, 0.3125
1921, 2.1875, 0.25, 0.3125
1922, 2.25, 0.25, 0.3125
1923, 2.3125, 0.25, 0.3125
1924, 2.375, 0.25, 0.3125
1925, 2.4375, 0.25, 0.3125
1926, 2.5, 0.25, 0.3125
1927, 2.5625, 0.25, 0.3125
1928, 2.625, 0.25, 0.3125
1929, 2.6875, 0.25, 0.3125
1930, 2.75, 0.25, 0.3125
1931, 2.8125, 0.25, 0.3125
1932, 2.875, 0.25, 0.3125
1933, 2.9375, 0.25, 0.3125
1934, 3, 0.25, 0.3125
1935, 3.0625, 0.25, 0.3125
1936, 3.125, 0.25, 0.3125
1937, 3.1875, 0.25, 0.3125
1938, 3.25, 0.25, 0.3125
1939, 3.3125, 0.25, 0.3125
1940, 3.375, 0.25, 0.3125
1941, 3.4375, 0.25, 0.3125
1942, 3.5, 0.25, 0.3125
1943, 3.5625, 0.25, 0.3125
1944, 3.625, 0.25, 0.3125
1945, 3.6875, 0.25, 0.3125
1946, 3.75, 0.25, 0.3125
1947, 3.8125, 0.25, 0.3125
1948, 3.875, 0.25, 0.3125
1949, 3.9375, 0.25, 0.3125
1950, 4, 0.25, 0.3125
1951, 0, 0, 0.375
1952, 0.0625, 0, 0.375
1953, 0.125, 0, 0.375
1954, 0.1875, 0, 0.375
1955, 0.25, 0, 0.375
1956, 0.3125, 0, 0.375
1957, 0.375, 0, 0.375
1958, 0.4375, 0, 0.375
1959, 0.5, 0, 0.375
1960, 0.5625, 0, 0.375
1961, 0.625, 0, 0.375
1962, 0.6875, 0, 0.375
1963, 0.75, 0, 0.375
1964, 0.8125, 0, 0.375
1965, 0.875, 0, 0.375
1966, 0.9375, 0, 0.375
1967, 1, 0, 0.375
1968, 1.0625, 0, 0.375
1969, 1.125, 0, 0.375
1970, 1.1875, 0, 0.375
1971, 1.25, 0, 0.375
1972, 1.3125, 0, 0.375
1973, 1.375, 0, 0.375
1974, 1.4375, 0, 0.375
1975, 1.5, 0, 0.375
1976, 1.5625, 0, 0.375
1977, 1.625, 0, 0.375
1978, 1.6875, 0, 0.375
1979, 1.75, 0, 0.375
1980, 1.8125, 0, 0.375
1981, 1.875, 0, 0.375
1982, 1.9375, 0, 0.375
1983, 2, 0, 0.375
1984, 2.0625, 0, 0.375
1985, 2.125, 0, 0.375
1986, 2.1875, 0, 0.375
1987, 2.25, 0, 0.375
1988, 2.3125, 0, 0.375
1989, 2.375, 0, 0.375
1990, 2.4375, 0, 0.375
1991, 2.5, 0, 0.375
1992, 2.5625, 0, 0.375
1993, 2.625, 0, 0.375
1994, 2.6875, 0, 0.375
1995, 2.75, 0, 0.375
1996, 2.8125, 0, 0.375
1997, 2.875, 0, 0.375
1998, 2.9375, 0, 0.375
1999, 3, 0, 0.375
2000, 3.0625, 0, 0.375
2001, 3.125, 0, 0.375
2002, 3.1875, 0, 0.375
2003, 3.25, 0, 0.375
2004, 3.3125, 0, 0.375
2005, 3.375, 0, 0.375
2006, 3.4375, 0, 0.375
2007, 3.5, 0, 0.375
2008, 3.5625, 0, 0.375
2009, 3.625, 0, 0.375
2010, 3.6875, 0, 0.375
2011, 3.75, 0, 0.375
2012, 3.8125, 0, 0.375
2013, 3.875, 0, 0.375
2014, 3.9375, 0, 0.375
2015, 4, 0, 0.375
2016, 0, 0.0625, 0.375
2017, 0.0625, 0.0625, 0.375
2018, 0.125, 0.0625, 0.375
2019, 0.1875, 0.0625, 0.375
2020, 0.25, 0.0625, 0.375
2021, 0.3125, 0.0625, 0.375
2022, 0.375, 0.0625, 0.375
2023, 0.4375, 0.0625, 0.375
2024, 0.5, 0.0625, 0.375
2025, 0.5625, 0.0625, 0.375
2026, 0.625, 0.0625, 0.375
2027, 0.6875, 0.0625, 0.375
2028, 0.75, 0.0625, 0.375
2029, 0.8125, 0.0625, 0.375
2030, 0.875, 0.0625, 0.375
2031, 0.9375, 0.0625, 0.375
2032, 1, 0.0625, 0.375
2033, 1.0625, 0.0625, 0.375
2034, 1.125, 0.0625, 0.375
2035, 1.1875, 0.0625, 0.375
2036, 1.25, 0.0625, 0.375
2037, 1.3125, 0.0625, 0.375
2038, 1.375, 0.0625, 0.375
2039, 1.4375, 0.0625, 0.375
2040, 1.5, 0.0625, 0.375
2041, 1.5625, 0.0625, 0.375
2042, 1.625, 0.0625, 0.375
2043, 1.6875, 0.0625, 0.375
2044, 1.75, 0.0625, 0.375
2045, 1.8125, 0.0625, 0.375
2046, 1.875, 0.0625, 0.375
2047, 1.9375, 0.0625, 0.375
2048, 2, 0.0625, 0.375
2049, 2.0625, 0.0625, 0.375
2050, 2.125, 0.0625, 0.375
2051, 2.1875, 0.0625, 0.375
2052, 2.25, 0.0625, 0.375
2053, 2.3125, 0.0625, 0.375
2054, 2.375, 0.0625, 0.375
2055, 2.4375, 0.0625, 0.375
2056, 2.5, 0.0625, 0.375
2057, 2.5625, 0.0625, 0.375
2058, 2.625, 0.0625, 0.375
2059, 2.6875, 0.0625, 0.375
2060, 2.75, 0.0625, 0.375
2061, 2.8125, 0.0625, 0.375
2062, 2.875, 0.0625, 0.375
2063, 2.9375, 0.0625, 0.375
2064, 3, 0.0625, 0.375
2065, 3.0625, 0.0625, 0.375
2066, 3.125, 0.0625, 0.375
2067, 3.1875, 0.0625, 0.375
2068, 3.25, 0.0625, 0.375
2069, 3.3125, 0.0625, 0.375
2070, 3.375, 0.0625, 0.375
2071, 3.4375, 0.0625, 0.375
2072, 3.5, 0.0625, 0.375
2073, 3.5625, 0.0625, 0.375
2074, 3.625, 0.0625, 0.375
2075, 3.6875, 0.0625, 0.375
2076, 3.75, 0.0625, 0.375
2077, 3.8125, 0.0625, 0.375
2078, 3.875, 0.0625, 0.375
2079, 3.9375, 0.0625, 0.375
2080, 4, 0.0625, 0.375
2081, 0, 0.125, 0.375
2082, 0.0625, 0.125, 0.375
2083, 0.125, 0.125, 0.375
2084, 0.1875, 0.125, 0.375
2085, 0.25, 0.125, 0.375
2086, 0.3125, 0.125, 0.375
2087, 0.375, 0.125, 0.375
2088, 0.4375, 0.125, 0.375
2089, 0.5, 0.125, 0.375
2090, 0.5625, 0.125, 0.375
2091, 0.625, 0.125, 0.375
2092, 0.6875, 0.125, 0.375
2093, 0.75, 0.125, 0.375
2094, 0.8125, 0.125, 0.375
2095, 0.875, 0.125, 0.375
2096, 0.9375, 0.125, 0.375
2097, 1, 0.125, 0.375
2098, 1.0625, 0.125, 0.375
2099, 1.125, 0.125, 0.375
2100, 1.1875, 0.125, 0.375
2101, 1.25, 0.125, 0.375
2102, 1.3125, 0.125, 0.375
2103, 1.375, 0.125, 0.375
2104, 1.4375, 0.125, 0.375
2105, 1.5, 0.125, 0.375
2106, 1.5625, 0.125, 0.375
2107, 1.625, 0.125, 0.375
2108, 1.6875, 0.125, 0.375
2109, 1.75, 0.125, 0.375
2110, 1.8125, 0.125, 0.375
2111, 1.875, 0.125, 0.375
2112, 1.9375, 0.125, 0.375
2113, 2, 0.125, 0.375
2114, 2.0625, 0.125, 0.375
2115, 2.125, 0.125, 0.375
2116, 2.1875, 0.125, 0.375
2117, 2.25, 0.125, 0.375
2118, 2.3125, 0.125, 0.375
2119, 2.375, 0.125, 0.375
2120, 2.4375, 0.125, 0.375
2121, 2.5, 0.125, 0.375
2122, 2.5625, 0.125, 0.375
2123, 2.625, 0.125, 0.375
2124, 2.6875, 0.125, 0.375
2125, 2.75, 0.125, 0.375
2126, 2.8125, 0.125, 0.375
2127, 2.875, 0.125, 0.375
2128, 2.9375, 0.125, 0.375
2129, 3, 0.125, 0.375
2130, 3.0625, 0.125, 0.375
2131, 3.125, 0.125, 0.375
2132, 3.1875, 0.125, 0.375
2133, 3.25, 0.125, 0.375
2134, 3.3125, 0.125, 0.375
2135, 3.375, 0.125, 0.375
2136, 3.4375, 0.125, 0.375
2137, 3.5, 0.125, 0.375
2138, 3.5625, 0.125, 0.375
2139, 3.625, 0.125, 0.375
2140, 3.6875, 0.125, 0.375
2141, 3.75, 0.125, 0.375
2142, 3.8125, 0.125, 0.375
2143, 3.875, 0.125, 0.375
2144, 3.9375, 0.125, 0.375
2145, 4, 0.125, 0.375
2146, 0, 0.1875, 0.375
2147, 0.0625, 0.1875, 0.375
2148, 0.125, 0.1875, 0.375
2149, 0.1875, 0.1875, 0.375
2150, 0.25, 0.1875, 0.375
2151, 0.3125, 0.1875, 0.375
2152, 0.375, 0.1875, 0.375
2153, 0.4375, 0.1875, 0.375
2154, 0.5, 0.1875, 0.375
2155, 0.5625, 0.1875, 0.375
2156, 0.625, 0.1875, 0.375
2157, 0.6875, 0.1875, 0.375
2158, 0.75, 0.1875, 0.375
2159, 0.8125, 0.1875, 0.375
2160, 0.875, 0.1875, 0.375
2161, 0.9375, 0.1875, 0.375
2162, 1, 0.1875, 0.375
2163, 1.0625, 0.1875, 0.375
2164, 1.125, 0.1875, 0.375
2165, 1.1875, 0.1875, 0.375
2166, 1.25, 0.1875, 0.375
2167, 1.3125, 0.1875, 0.375
2168, 1.375, 0.1875, 0.375
2169, 1.4375, 0.1875, 0.375
2170, 1.5, 0.1875, 0.375
2171, 1.5625, 0.1875, 0.375
2172, 1.625, 0.1875, 0.375
2173, 1.6875, 0.1875, 0.375
2174, 1.75, 0.1875, 0.375
2175, 1.8125, 0.1875, 0.375
2176, 1.875, 0.1875, 0.375
2177, 1.9375, 0.1875, 0.375
2178, 2, 0.1875, 0.375
2179, 2.0625, 0.1875, 0.375
2180, 2.125, 0.1875, 0.375
2181, 2.1875, 0.1875, 0.375
2182, 2.25, 0.1875, 0.375
2183, 2.3125, 0.1875, 0.375
2184, 2.375, 0.1875, 0.375
2185, 2.4375, 0.1875, 0.375
2186, 2.5, 0.1875, 0.375
2187, 2.5625, 0.1875, 0.375
2188, 2.625, 0.1875, 0.375
2189, 2.6875, 0.1875, 0.375
2190, 2.75, 0.1875, 0.375
2191, 2.8125, 0.1875, 0.375
2192, 2.875, 0.1875, 0.375
2193, 2.9375, 0.1875, 0.375
2194, 3, 0.1875, 0.375
2195, 3.0625, 0.1875, 0.375
2196, 3.125, 0.1875, 0.375
2197, 3.1875, 0.1875, 0.375
2198, 3.25, 0.1875, 0.375
2199, 3.3125, 0.1875, 0.375
2200, 3.375, 0.1875, 0.375
2201, 3.4375, 0.1875, 0.375
2202, 3.5, 0.1875, 0.375
2203, 3.5625, 0.1875, 0.375
2204, 3.625, 0.1875, 0.375
2205, 3.6875, 0.1875, 0.375
2206, 3.75, 0.1875, 0.375
2207, 3.8125, 0.1875, 0.375
2208, 3.875, 0.1875, 0.375
2209, 3.9375, 0.1875, 0.375
2210, 4, 0.1875, 0.375
2211, 0, 0.25, 0.375
2212, 0.0625, 0.25, 0.375
2213, 0.125, 0.25, 0.375
2214, 0.1875, 0.25, 0.375
2215, 0.25, 0.25, 0.375
2216, 0.3125, 0.25, 0.375
2217, 0.375, 0.25, 0.375
2218, 0.4375, 0.25, 0.375
2219, 0.5, 0.25, 0.375
2220, 0.5625, 0.25, 0.375
2221, 0.625, 0.25, 0.375
2222, 0.6875, 0.25, 0.375
2223, 0.75, 0.25, 0.375
2224, 0.8125, 0.25, 0.375
2225, 0.875, 0.25, 0.375
2226, 0.9375, 0.25, 0.375
2227, 1, 0.25, 0.375
2228, 1.0625, 0.25, 0.375
2229, 1.125, 0.25, 0.375
2230, 1.1875, 0.25, 0.375
2231, 1.25, 0.25, 0.375
2232, 1.3125, 0.25, 0.375
2233, 1.375, 0.25, 0.375
2234, 1.4375, 0.25, 0.375
2235, 1.5, 0.25, 0.375
2236, 1.5625, 0.25, 0.375
2237, 1.625, 0.25, 0.375
2238, 1.6875, 0.25, 0.375
2239, 1.75, 0.25, 0.375
2240, 1.8125, 0.25, 0.375
2241, 1.875, 0.25, 0.375
2242, 1.9375, 0.25, 0.375
2243, 2, 0.25, 0.375
2244, 2.0625, 0.25, 0.375
2245, 2.125, 0.25, 0.375
2246, 2.1875, 0.25, 0.375
2247, 2.25, 0.25, 0.375
2248, 2.3125, 0.25, 0.375
2249, 2.375, 0.25, 0.375
2250, 2.4375, 0.25, 0.375
2251, 2.5, 0.25, 0.375
2252, 2.5625, 0.25, 0.375
2253, 2.625, 0.25, 0.375
2254, 2.6875, 0.25, 0.375
2255, 2.75, 0.25, 0.375
2256, 2.8125, 0.25, 0.375
2257, 2.875, 0.25, 0.375
2258, 2.9375, 0.25, 0.375
2259, 3, 0.25, 0.375
2260, 3.0625, 0.25, 0.375
2261, 3.125, 0.25, 0.375
2262, 3.1875, 0.25, 0.375
2263, 3.25, 0.25, 0.375
2264, 3.3125, 0.25, 0.375
2265, 3.375, 0.25, 0.375
2266, 3.4375, 0.25, 0.375
2267, 3.5, 0.25, 0.375
2268, 3.5625, 0.25, 0.375
2269, 3.625, 0.25, 0.375
2270, 3.6875, 0.25, 0.375
2271, 3.75, 0.25, 0.375
2272, 3.8125, 0.25, 0.375
2273, 3.875, 0.25, 0.375
2274, 3.9375, 0.25, 0.375
2275, 4, 0.25, 0.375
2276, 0, 0, 0.4375
2277, 0.0625, 0, 0.4375
2278, 0.125, 0, 0.4375
2279, 0.1875, 0, 0.4375
2280, 0.25, 0, 0.4375
2281, 0.3125, 0, 0.4375
2282, 0.375, 0, 0.4375
2283, 0.4375, 0, 0.4375
2284, 0.5, 0, 0.4375
2285, 0.5625, 0, 0.4375
2286, 0.625, 0, 0.4375
2287, 0.6875, 0, 0.4375
2288, 0.75, 0, 0.4375
2289, 0.8125, 0, 0.4375
2290, 0.875, 0, 0.4375
2291, 0.9375, 0, 0.4375
2292, 1, 0, 0.4375
2293, 1.0625, 0, 0.4375
2294, 1.125, 0, 0.4375
2295, 1.1875, 0, 0.4375
2296, 1.25, 0, 0.4375
2297, 1.3125, 0, 0.4375
2298, 1.375, 0, 0.4375
2299, 1.4375, 0, 0.4375
2300, 1.5, 0, 0.4375
2301, 1.5625, 0, 0.4375
2302, 1.625, 0, 0.4375
2303, 1.6875, 0, 0.4375
2304, 1.75, 0, 0.4375
2305, 1.8125, 0, 0.4375
2306, 1.875, 0, 0.4375
2307, 1.9375, 0, 0.4375
2308, 2, 0, 0.4375
2309, 2.0625, 0, 0.4375
2310, 2.125, 0, 0.4375
2311, 2.1875, 0, 0.4375
2312, 2.25, 0, 0.4375
2313, 2.3125, 0, 0.4375
2314, 2.375, 0, 0.4375
2315, 2.4375, 0, 0.4375
2316, 2.5, 0, 0.4375
2317, 2.5625, 0, 0.4375
2318, 2.625, 0, 0.4375
2319, 2.6875, 0, 0.4375
2320, 2.75, 0, 0.4375
2321, 2.8125, 0, 0.4375
2322, 2.875, 0, 0.4375
2323, 2.9375, 0, 0.4375
2324, 3, 0, 0.4375
2325, 3.0625, 0, 0.4375
2326, 3.125, 0, 0.4375
2327, 3.1875, 0, 0.4375
2328, 3.25, 0, 0.4375
2329, 3.3125, 0, 0.4375
2330, 3.375, 0, 0.4375
2331, 3.4375, 0, 0.4375
2332, 3.5, 0, 0.4375
2333, 3.5625, 0, 0.4375
2334, 3.625, 0, 0.4375
2335, 3.6875, 0, 0.4375
2336, 3.75, 0, 0.4375
2337, 3.8125, 0, 0.4375
2338, 3.875, 0, 0.4375
2339, 3.9375, 0, 0.4375
2340, 4, 0, 0.4375
2341, 0, 0.0625, 0.4375
2342, 0.0625, 0.0625, 0.4375
2343, 0.125, 0.0625, 0.4375
2344, 0.1875, 0.0625, 0.4375
2345, 0.25, 0.0625, 0.4375
2346, 0.3125, 0.0625, 0.4375
2347, 0.375, 0.0625, 0.4375
2348, 0.4375, 0.0625, 0.4375
2349, 0.5, 0.0625, 0.4375
2350, 0.5625, 0.0625, 0.4375
2351, 0.625, 0.0625, 0.4375
2352, 0.6875, 0.0625, 0.4375
2353, 0.75, 0.0625, 0.4375
2354, 0.8125, 0.0625, 0.4375
2355, 0.875, 0.0625, 0.4375
2356, 0.9375, 0.0625, 0.4375
2357, 1, 0.0625, 0.4375
2358, 1.0625, 0.0625, 0.4375
2359, 1.125, 0.0625, 0.4375
2360, 1.1875, 0.0625, 0.4375
2361, 1.25, 0.0625, 0.4375
2362, 1.3125, 0.0625, 0.4375
2363, 1.375, 0.0625, 0.4375
2364, 1.4375, 0.0625, 0.4375
2365, 1.5, 0.0625, 0.4375
2366, 1.5625, 0.0625, 0.4375
2367, 1.625, 0.0625, 0.4375
2368, 1.6875, 0.0625, 0.4375
2369, 1.75, 0.0625, 0.4375
2370, 1.8125, 0.0625, 0.4375
2371, 1.875, 0.0625, 0.4375
2372, 1.9375, 0.0625, 0.4375
2373, 2, 0.0625, 0.4375
2374, 2.0625, 0.0625, 0.4375
2375, 2.125, 0.0625, 0.4375
2376, 2.1875, 0.0625, 0.4375
2377, 2.25, 0.0625, 0.4375
2378, 2.3125, 0.0625, 0.4375
2379, 2.375, 0.0625, 0.4375
2380, 2.4375, 0.0625, 0.4375
2381, 2.5, 0.0625, 0.4375
2382, 2.5625, 0.0625, 0.4375
2383, 2.625, 0.0625, 0.4375
2384, 2.6875, 0.0625, 0.4375
2385, 2.75, 0.0625, 0.4375
2386, 2.8125, 0.0625, 0.4375
2387, 2.875, 0.0625, 0.4375
2388, 2.9375, 0.0625, 0.4375
2389, 3, 0.0625, 0.4375
2390, 3.0625, 0.0625, 0.4375
2391, 3.125, 0.0625, 0.4375
2392, 3.1875, 0.0625, 0.4375
2393, 3.25, 0.0625, 0.4375
2394, 3.3125, 0.0625, 0.4375
2395, 3.375, 0.0625, 0.4375
2396, 3.4375, 0.0625, 0.4375
2397, 3.5, 0.0625, 0.4375
2398, 3.5625, 0.0625, 0.4375
2399, 3.625, 0.0625, 0.4375
2400, 3.6875, 0.0625, 0.4375
2401, 3.75, 0.0625, 0.4375
2402, 3.8125, 0.0625, 0.4375
2403, 3.875, 0.0625, 0.4375
2404, 3.9375, 0.0625, 0.4375
2405, 4, 0.0625, 0.4375
2406, 0, 0.125, 0.4375
2407, 0.0625, 0.125, 0.4375
2408, 0.125, 0.125, 0.4375
2409, 0.1875, 0.125, 0.4375
2410, 0.25, 0.125, 0.4375
2411, 0.3125, 0.125, 0.4375
2412, 0.375, 0.125, 0.4375
2413, 0.4375, 0.125, 0.4375
2414, 0.5, 0.125, 0.4375
2415, 0.5625, 0.125, 0.4375
2416, 0.625, 0.125, 0.4375
2417, 0.6875, 0.125, 0.4375
2418, 0.75, 0.125, 0.4375
2419, 0.8125, 0.125, 0.4375
2420, 0.875, 0.125, 0.4375
2421, 0.9375, 0.125, 0.4375
2422, 1, 0.125, 0.4375
2423, 1.0625, 0.125, 0.4375
2424, 1.125, 0.125, 0.4375
2425, 1.1875, 0.125, 0.4375
2426, 1.25, 0.125, 0.4375
2427, 1.3125, 0.125, 0.4375
2428, 1.375, 0.125, 0.4375
2429, 1.4375, 0.125, 0.4375
2430, 1.5, 0.125, 0.4375
2431, 1.5625, 0.125, 0.4375
2432, 1.625, 0.125, 0.4375
2433, 1.6875, 0.125, 0.4375
2434, 1.75, 0.125, 0.4375
2435, 1.8125, 0.125, 0.4375
2436, 1.875, 0.125, 0.4375
2437, 1.9375, 0.125, 0.4375
2438, 2, 0.125, 0.4375
2439, 2.0625, 0.125, 0.4375
2440, 2.125, 0.125, 0.4375
2441, 2.1875, 0.125, 0.4375
2442, 2.25, 0.125, 0.4375
2443, 2.3125, 0.125, 0.4375
2444, 2.375, 0.125, 0.4375
2445, 2.4375, 0.125, 0.4375
2446, 2.5, 0.125, 0.4375
2447, 2.5625, 0.125, 0.4375
2448, 2.625, 0.125, 0.4375
2449, 2.6875, 0.125, 0.4375
2450, 2.75, 0.125, 0.4375
2451, 2.8125, 0.125, 0.4375
2452, 2.875, 0.125, 0.4375
2453, 2.9375, 0.125, 0.4375
2454, 3, 0.125, 0.4375
2455, 3.0625, 0.125, 0.4375
2456, 3.125, 0.125, 0.4375
2457, 3.1875, 0.125, 0.4375
2458, 3.25, 0.125, 0.4375
2459, 3.3125, 0.125, 0.4375
2460, 3.375, 0.125, 0.4375
2461, 3.4375, 0.125, 0.4375
2462, 3.5, 0.125, 0.4375
2463, 3.5625, 0.125, 0.4375
2464, 3.625, 0.125, 0.4375
2465, 3.6875, 0.125, 0.4375
2466, 3.75, 0.125, 0.4375
2467, 3.8125, 0.125, 0.4375
2468, 3.875, 0.125, 0.4375
2469, 3.9375, 0.125, 0.4375
2470, 4, 0.125, 0.4375
2471, 0, 0.1875, 0.4375
2472, 0.0625, 0.1875, 0.4375
2473, 0.125, 0.1875, 0.4375
2474, 0.1875, 0.1875, 0.4375
2475, 0.25, 0.1875, 0.4375
2476, 0.3125, 0.1875, 0.4375
2477, 0.375, 0.1875, 0.4375
2478, 0.4375, 0.1875, 0.4375
2479, 0.5, 0.1875, 0.4375
2480, 0.5625, 0.1875, 0.4375
2481, 0.625, 0.1875, 0.4375
2482, 0.6875, 0.1875, 0.4375
2483, 0.75, 0.1875, 0.4375
2484, 0.8125, 0.1875, 0.4375
2485, 0.875, 0.1875, 0.4375
2486, 0.9375, 0.1875, 0.4375
2487, 1, 0.1875, 0.4375
2488, 1.0625, 0.1875, 0.4375
2489, 1.125, 0.1875, 0.4375
2490, 1.1875, 0.1875, 0.4375
2491, 1.25, 0.1875, 0.4375
2492, 1.3125, 0.1875, 0.4375
2493, 1.375, 0.1875, 0.4375
2494, 1.4375, 0.1875, 0.4375
2495, 1.5, 0.1875, 0.4375
2496, 1.5625, 0.1875, 0.4375
2497, 1.625, 0.1875, 0.4375
2498, 1.6875, 0.1875, 0.4375
2499, 1.75, 0.1875, 0.4375
2500, 1.8125, 0.1875, 0.4375
2501, 1.875, 0.1875, 0.4375
2502, 1.9375, 0.1875, 0.4375
2503, 2, 0.1875, 0.4375
2504, 2.0625, 0.1875, 0.4375
2505, 2.125, 0.1875, 0.4375
2506, 2.1875, 0.1875, 0.4375
2507, 2.25, 0.1875, 0.4375
2508, 2.3125, 0.1875, 0.4375
2509, 2.375, 0.1875, 0.4375
2510, 2.4375, 0.1875, 0.4375
2511, 2.5, 0.1875, 0.4375
2512, 2.5625, 0.1875, 0.4375
2513, 2.625, 0.1875, 0.4375
2514, 2.6875, 0.1875, 0.4375
2515, 2.75, 0.1875, 0.4375
2516, 2.8125, 0.1875, 0.4375
2517, 2.875, 0.1875, 0.4375
2518, 2.9375, 0.1875, 0.4375
2519, 3, 0.1875, 0.4375
2520, 3.0625, 0.1875, 0.4375
2521, 3.125, 0.1875, 0.4375
2522, 3.1875, 0.1875, 0.4375
2523, 3.25, 0.1875, 0.4375
2524, 3.3125, 0.1875, 0.4375
2525, 3.375, 0.1875, 0.4375
2526, 3.4375, 0.1875, 0.4375
2527, 3.5, 0.1875, 0.4375
2528, 3.5625, 0.1875, 0.4375
2529, 3.625, 0.1875, 0.4375
2530, 3.6875, 0.1875, 0.4375
2531, 3.75, 0.1875, 0.4375
2532, 3.8125, 0.1875, 0.4375
2533, 3.875, 0.1875, 0.4375
2534, 3.9375, 0.1875, 0.4375
2535, 4, 0.1875, 0.4375
2536, 0, 0.25, 0.4375
2537, 0.0625, 0.25, 0.4375
2538, 0.125, 0.25, 0.4375
2539, 0.1875, 0.25, 0.4375
2540, 0.25, 0.25, 0.4375
2541, 0.3125, 0.25, 0.4375
2542, 0.375, 0.25, 0.4375
2543, 0.4375, 0.25, 0.4375
2544, 0.5, 0.25, 0.4375
2545, 0.5625, 0.25, 0.4375
2546, 0.625, 0.25, 0.4375
2547, 0.6875, 0.25, 0.4375
2548, 0.75, 0.25, 0.4375
2549, 0.8125, 0.25, 0.4375
2550, 0.875, 0.25, 0.4375
2551, 0.9375, 0.25, 0.4375
2552, 1, 0.25, 0.4375
2553, 1.0625, 0.25, 0.4375
2554, 1.125, 0.25, 0.4375
2555, 1.1875, 0.25, 0.4375
2556, 1.25, 0.25, 0.4375
2557, 1.3125, 0.25, 0.4375
2558, 1.375, 0.25, 0.4375
2559, 1.4375, 0.25, 0.4375
2560, 1.5, 0.25, 0.4375
2561, 1.5625, 0.25, 0.4375
2562, 1.625, 0.25, 0.4375
2563, 1.6875, 0.25, 0.4375
2564, 1.75, 0.25, 0.4375
2565, 1.8125, 0.25, 0.4375
2566, 1.875, 0.25, 0.4375
2567, 1.9375, 0.25, 0.4375
2568, 2, 0.25, 0.4375
2569, 2.0625, 0.25, 0.4375
2570, 2.125, 0.25, 0.4375
2571, 2.1875, 0.25, 0.4375
2572, 2.25, 0.25, 0.4375
2573, 2.3125, 0.25, 0.4375
2574, 2.375, 0.25, 0.4375
2575, 2.4375, 0.25, 0.4375
2576, 2.5, 0.25, 0.4375
2577, 2.5625, 0.25, 0.4375
2578, 2.625, 0.25, 0.4375
2579, 2.6875, 0.25, 0.4375
2580, 2.75, 0.25, 0.4375
2581, 2.8125, 0.25, 0.4375
2582, 2.875, 0.25, 0.4375
2583, 2.9375, 0.25, 0.4375
2584, 3, 0.25, 0.4375
2585, 3.0625, 0.25, 0.4375
2586, 3.125, 0.25, 0.4375
2587, 3.1875, 0.25, 0.4375
2588, 3.25, 0.25, 0.4375
2589, 3.3125, 0.25, 0.4375
2590, 3.375, 0.25, 0.4375
2591, 3.4375, 0.25, 0.4375
2592, 3.5, 0.25, 0.4375
2593, 3.5625, 0.25, 0.4375
2594, 3.625, 0.25, 0.4375
2595, 3.6875, 0.25, 0.4375
2596, 3.75, 0.25, 0.4375
2597, 3.8125, 0.25, 0.4375
2598, 3.875, 0.25, 0.4375
2599, 3.9375, 0.25, 0.4375
2600, 4, 0.25, 0.4375
2601, 0, 0, 0.5
2602, 0.0625, 0, 0.5
2603, 0.125, 0, 0.5
2604, 0.1875, 0, 0.5
2605, 0.25, 0, 0.5
2606, 0.3125, 0, 0.5
2607, 0.375, 0, 0.5
2608, 0.4375, 0, 0.5
2609, 0.5, 0, 0.5
2610, 0.5625, 0, 0.5
2611, 0.625, 0, 0.5
2612, 0.6875, 0, 0.5
2613, 0.75, 0, 0.5
2614, 0.8125, 0, 0.5
2615, 0.875, 0, 0.5
2616, 0.9375, 0, 0.5
2617, 1, 0, 0.5
2618, 1.0625, 0, 0.5
2619, 1.125, 0, 0.5
2620, 1.1875, 0, 0.5
2621, 1.25, 0, 0.5
2622, 1.3125, 0, 0.5
2623, 1.375, 0, 0.5
2624, 1.4375, 0, 0.5
2625, 1.5, 0, 0.5
2626, 1.5625, 0, 0.5
2627, 1.625, 0, 0.5
2628, 1.6875, 0, 0.5
2629, 1.75, 0, 0.5
2630, 1.8125, 0, 0.5
2631, 1.875, 0, 0.5
2632, 1.9375, 0, 0.5
2633, 2, 0, 0.5
2634, 2.0625, 0, 0.5
2635, 2.125, 0, 0.5
2636, 2.1875, 0, 0.5
2637, 2.25, 0, 0.5
2638, 2.3125, 0, 0.5
2639, 2.375, 0, 0.5
2640, 2.4375, 0, 0.5
2641, 2.5, 0, 0.5
2642, 2.5625, 0, 0.5
2643, 2.625, 0, 0.5
2644, 2.6875, 0, 0.5
2645, 2.75, 0, 0.5
2646, 2.8125, 0, 0.5
2647, 2.875, 0, 0.5
2648, 2.9375, 0, 0.5
2649, 3, 0, 0.5
2650, 3.0625, 0, 0.5
2651, 3.125, 0, 0.5
2652, 3.1875, 0, 0.5
2653, 3.25, 0, 0.5
2654, 3.3125, 0, 0.5
2655, 3.375, 0, 0.5
2656, 3.4375, 0, 0.5
2657, 3.5, 0, 0.5
2658, 3.5625, 0, 0.5
2659, 3.625, 0, 0.5
2660, 3.6875, 0, 0.5
2661, 3.75, 0, 0.5
2662, 3.8125, 0, 0.5
2663, 3.875, 0, 0.5
2664, 3.9375, 0, 0.5
2665, 4, 0, 0.5
2666, 0, 0.0625, 0.5
2667, 0.0625, 0.0625, 0.5
2668, 0.125, 0.0625, 0.5
2669, 0.1875, 0.0625, 0.5
2670, 0.25, 0.0625, 0.5
2671, 0.3125, 0.0625, 0.5
2672, 0.375, 0.0625, 0.5
2673, 0.4375, 0.0625, 0.5
2674, 0.5, 0.0625, 0.5
2675, 0.5625, 0.0625, 0.5
2676, 0.625, 0.0625, 0.5
2677, 0.6875, 0.0625, 0.5
2678, 0.75, 0.0625, 0.5
2679, 0.8125, 0.0625, 0.5
2680, 0.875, 0.0625, 0.5
2681, 0.9375, 0.0625, 0.5
2682, 1, 0.0625, 0.5
2683, 1.0625, 0.0625, 0.5
2684, 1.125, 0.0625, 0.5
2685, 1.1875, 0.0625, 0.5
2686, 1.25, 0.0625, 0.5
2687, 1.3125, 0.0625, 0.5
2688, 1.375, 0.0625, 0.5
2689, 1.4375, 0.0625, 0.5
2690, 1.5, 0.0625, 0.5
2691, 1.5625, 0.0625, 0.5
2692, 1.625, 0.0625, 0.5
2693, 1.6875, 0.0625, 0.5
2694, 1.75, 0.0625, 0.5
2695, 1.8125, 0.0625, 0.5
2696, 1.875, 0.0625, 0.5
2697, 1.9375, 0.0625, 0.5
2698, 2, 0.0625, 0.5
2699, 2.0625, 0.0625, 0.5
2700, 2.125, 0.0625, 0.5
2701, 2.1875, 0.0625, 0.5
2702, 2.25, 0.0625, 0.5
2703, 2.3125, 0.0625, 0.5
2704, 2.375, 0.0625, 0.5
2705, 2.4375, 0.0625, 0.5
2706, 2.5, 0.0625, 0.5
2707, 2.5625, 0.0625, 0.5
2708, 2.625, 0.0625, 0.5
2709, 2.6875, 0.0625, 0.5
2710, 2.75, 0.0625, 0.5
2711, 2.8125, 0.0625, 0.5
2712, 2.875, 0.0625, 0.5
2713, 2.9375, 0.0625, 0.5
2714, 3, 0.0625, 0.5
2715, 3.0625, 0.0625, 0.5
2716, 3.125, 0.0625, 0.5
2717, 3.1875, 0.0625, 0.5
2718, 3.25, 0.0625, 0.5
2719, 3.3125, 0.0625, 0.5
2720, 3.375, 0.0625, 0.5
2721, 3.4375, 0.0625, 0.5
2722, 3.5, 0.0625, 0.5
2723, 3.5625, 0.0625, 0.5
2724, 3.625, 0.0625, 0.5
2725, 3.6875, 0.0625, 0.5
2726, 3.75, 0.0625, 0.5
2727, 3.8125, 0.0625, 0.5
2728, 3.875, 0.0625, 0.5
2729, 3.9375, 0.0625, 0.5
2730, 4, 0.0625, 0.5
2731, 0, 0.125, 0.5
2732, 0.0625, 0.125, 0.5
2733, 0.125, 0.125, 0.5
2734, 0.1875, 0.125, 0.5
2735, 0.25, 0.125, 0.5
2736, 0.3125, 0.125, 0.5
2737, 0.375, 0.125, 0.5
2738, 0.4375, 0.125, 0.5
2739, 0.5, 0.125, 0.5
2740, 0.5625, 0.125, 0.5
2741, 0.625, 0.125, 0.5
2742, 0.6875, 0.125, 0.5
2743, 0.75, 0.125, 0.5
2744, 0.8125, 0.125, 0.5
2745, 0.875, 0.125, 0.5
2746, 0.9375, 0.125, 0.5
2747, 1, 0.125, 0.5
2748, 1.0625, 0.125, 0.5
2749, 1.125, 0.125, 0.5
2750, 1.1875, 0.125, 0.5
2751, 1.25, 0.125, 0.5
2752, 1.3125, 0.125, 0.5
2753, 1.375, 0.125, 0.5
2754, 1.4375, 0.125, 0.5
2755, 1.5, 0.125, 0.5
2756, 1.5625, 0.125, 0.5
2757, 1.625, 0.125, 0.5
2758, 1.6875, 0.125, 0.5
2759, 1.75, 0.125, 0.5
2760, 1.8125, 0.125, 0.5
2761, 1.875, 0.125, 0.5
2762, 1.9375, 0.125, 0.5
2763, 2, 0.125, 0.5
2764, 2.0625, 0.125, 0.5
2765, 2.125, 0.125, 0.5
2766, 2.1875, 0.125, 0.5
2767, 2.25, 0.125, 0.5
2768, 2.3125, 0.125, 0.5
2769, 2.375, 0.125, 0.5
2770, 2.4375, 0.125, 0.5
2771, 2.5, 0.125, 0.5
2772, 2.5625, 0.125, 0.5
2773, 2.625, 0.125, 0.5
2774, 2.6875, 0.125, 0.5
2775, 2.75, 0.125, 0.5
2776, 2.8125, 0.125, 0.5
2777, 2.875, 0.125, 0.5
2778, 2.9375, 0.125, 0.5
2779, 3, 0.125, 0.5
2780, 3.0625, 0.125, 0.5
2781, 3.125, 0.125, 0.5
2782, 3.1875, 0.125, 0.5
2783, 3.25, 0.125, 0.5
2784, 3.3125, 0.125, 0.5
2785, 3.375, 0.125, 0.5
2786, 3.4375, 0.125, 0.5
2787, 3.5, 0.125, 0.5
2788, 3.5625, 0.125, 0.5
2789, 3.625, 0.125, 0.5
2790, 3.6875, 0.125, 0.5
2791, 3.75, 0.125, 0.5
2792, 3.8125, 0.125, 0.5
2793, 3.875, 0.125, 0.5
2794, 3.9375, 0.125, 0.5
2795, 4, 0.125, 0.5
2796, 0, 0.1875, 0.5
2797, 0.0625, 0.1875, 0.5
2798, 0.125, 0.1875, 0.5
2799, 0.1875, 0.1875, 0.5
2800, 0.25, 0.1875, 0.5
2801, 0.3125, 0.1875, 0.5
2802, 0.375, 0.1875, 0.5
2803, 0.4375, 0.1875, 0.5
2804, 0.5, 0.1875, 0.5
2805, 0.5625, 0.1875, 0.5
2806, 0.625, 0.1875, 0.5
2807, 0.6875, 0.1875, 0.5
2808, 0.75, 0.1875, 0.5
2809, 0.8125, 0.1875, 0.5
2810, 0.875, 0.1875, 0.5
2811, 0.9375, 0.1875, 0.5
2812, 1, 0.1875, 0.5
2813, 1.0625, 0.1875, 0.5
2814, 1.125, 0.1875, 0.5
2815, 1.1875, 0.1875, 0.5
2816, 1.25, 0.1875, 0.5
2817, 1.3125, 0.1875, 0.5
2818, 1.375, 0.1875, 0.5
2819, 1.4375, 0.1875, 0.5
2820, 1.5, 0.1875, 0.5
2821, 1.5625, 0.1875, 0.5
2822, 1.625, 0.1875, 0.5
2823, 1.6875, 0.1875, 0.5
2824, 1.75, 0.1875, 0.5
2825, 1.8125, 0.1875, 0.5
2826, 1.875, 0.1875, 0.5
2827, 1.9375, 0.1875, 0.5
2828, 2, 0.1875, 0.5
2829, 2.0625, 0.1875, 0.5
2830, 2.125, 0.1875, 0.5
2831, 2.1875, 0.1875, 0.5
2832, 2.25, 0.1875, 0.5
2833, 2.3125, 0.1875, 0.5
2834, 2.375, 0.1875, 0.5
2835, 2.4375, 0.1875, 0.5
2836, 2.5, 0.1875, 0.5
2837, 2.5625, 0.1875, 0.5
2838, 2.625, 0.1875, 0.5
2839, 2.6875, 0.1875, 0.5
2840, 2.75, 0.1875, 0.5
2841, 2.8125, 0.1875, 0.5
2842, 2.875, 0.1875, 0.5
2843, 2.9375, 0.1875, 0.5
2844, 3, 0.1875, 0.5
2845, 3.0625, 0.1875, 0.5
2846, 3.125, 0.1875, 0.5
2847, 3.1875, 0.1875, 0.5
2848, 3.25, 0.1875, 0.5
2849, 3.3125, 0.1875, 0.5
2850, 3.375, 0.1875, 0.5
2851, 3.4375, 0.1875, 0.5
2852, 3.5, 0.1875, 0.5
2853, 3.5625, 0.1875, 0.5
2854, 3.625, 0.1875, 0.5
2855, 3.6875, 0.1875, 0.5
2856, 3.75, 0.1875, 0.5
2857, 3.8125, 0.1875, 0.5
2858, 3.875, 0.1875, 0.5
2859, 3.9375, 0.1875, 0.5
2860, 4, 0.1875, 0.5
2861, 0, 0.25, 0.5
2862, 0.0625, 0.25, 0.5
2863, 0.125, 0.25, 0.5
2864, 0.1875, 0.25, 0.5
2865, 0.25, 0.25, 0.5
2866, 0.3125, 0.25, 0.5
2867, 0.375, 0.25, 0.5
2868, 0.4375, 0.25, 0.5
2869, 0.5, 0.25, 0.5
2870, 0.5625, 0.25, 0.5
2871, 0.625, 0.25, 0.5
2872, 0.6875, 0.25, 0.5
2873, 0.75, 0.25, 0.5
2874, 0.8125, 0.25, 0.5
2875, 0.875, 0.25, 0.5
2876, 0.9375, 0.25, 0.5
2877, 1, 0.25, 0.5
2878, 1.0625, 0.25, 0.5
2879, 1.125, 0.25, 0.5
2880, 1.1875, 0.25, 0.5
2881, 1.25, 0.25, 0.5
2882, 1.3125, 0.25, 0.5
2883, 1.375, 0.25, 0.5
2884, 1.4375, 0.25, 0.5
2885, 1.5, 0.25, 0.5
2886, 1.5625, 0.25, 0.5
2887, 1.625, 0.25, 0.5
2888, 1.6875, 0.25, 0.5
2889, 1.75, 0.25, 0.5
2890, 1.8125, 0.25, 0.5
2891, 1.875, 0.25, 0.5
2892, 1.9375, 0.25, 0.5
2893, 2, 0.25, 0.5
2894, 2.0625, 0.25, 0.5
2895, 2.125, 0.25, 0.5
2896, 2.1875, 0.25, 0.5
2897, 2.25, 0.25, 0.5
2898, 2.3125, 0.25, 0.5
2899, 2.375, 0.25, 0.5
2900, 2.4375, 0.25, 0.5
2901, 2.5, 0.25, 0.5
2902, 2.5625, 0.25, 0.5
2903, 2.625, 0.25, 0.5
2904, 2.6875, 0.25, 0.5
2905, 2.75, 0.25, 0.5
2906, 2.8125, 0.25, 0.5
2907, 2.875, 0.25, 0.5
2908, 2.9375, 0.25, 0.5
2909, 3, 0.25, 0.5
2910, 3.0625, 0.25, 0.5
2911, 3.125, 0.25, 0.5
2912, 3.1875, 0.25, 0.5
2913, 3.25, 0.25, 0.5
2914, 3.3125, 0.25, 0.5
2915, 3.375, 0.25, 0.5
2916, 3.4375, 0.25, 0.5
2917, 3.5, 0.25, 0.5
2918, 3.5625, 0.25, 0.5
2919, 3.625, 0.25, 0.5
2920, 3.6875, 0.25, 0.5
2921, 3.75, 0.25, 0.5
2922, 3.8125, 0.25, 0.5
2923, 3.875, 0.25, 0.5
2924, 3.9375, 0.25, 0.5
2925, 4, 0.25, 0.5
*ELEMENT, TYPE=C3D8, ELSET=EALL
1, 1, 2, 67, 66, 326, 327, 392, 391
2, 2, 3, 68, 67, 327, 328, 393, 392
3, 3, 4, 69, 68, 328, 329, 394, 393
4, 4, 5, 70, 69, 329, 330, 395, 394
5, 5, 6, 71, 70, 330, 331, 396, 395
6, 6, 7, 72, 71, 331, 332, 397, 396
7, 7, 8, 73, 72, 332, 333, 398, 397
8, 8, 9, 74, 73, 333, 334, 399, 398
9, 9, 10, 75, 74, 334, 335, 400, 399
10, 10, 11, 76, 75, 335, 336, 401, 400
11, 11, 12, 77, 76, 336, 337, 402, 401
12, 12, 13, 78, 77, 337, 338, 403, 402
13, 13, 14, 79, 78, 338, 339, 404, 403
14, 14, 15, 80, 79, 339, 340, 405, 404
15, 15, 16, 81, 80, 340, 341, 406, 405
16, 16, 17, 82, 81, 341, 342, 407, 406
17, 17, 18, 83, 82, 342, 343, 408, 407
18, 18, 19, 84, 83, 343, 344, 409, 408
19, 19, 20, 85, 84, 344, 345, 410, 409
20, 20, 21, 86, 85, 345, 346, 411, 410
21, 21, 22, 87, 86, 346, 347, 412, 411
22, 22, 23, 88, 87, 347, 348, 413, 412
23, 23, 24, 89, 88, 348, 349, 414, 413
24, 24, 25, 90, 89, 349, 350, 415, 414
25, 25, 26, 91, 90, 350, 351, 416, 415
26, 26, 27, 92, 91, 351, 352, 417, 416
27, 27, 28, 93, 92, 352, 353, 418, 417
28, 28, 29, 94, 93, 353, 354, 419, 418
29, 29, 30, 95, 94, 354, 355, 420, 419
30, 30, 31, 96, 95, 355, 356, 421, 420
31, 31, 32, 97, 96, 356, 357, 422, 421
32, 32, 33, 98, 97, 357, 358, 423, 422
33, 33, 34, 99, 98, 358, 359, 424, 423
34, 34, 35, 100, 99, 359, 360, 425, 424
35, 35, 36, 101, 100, 360, 361, 426, 425
36, 36, 37, 102, 101, 361, 362, 427, 426
37, 37, 38, 103, 102, 362, 363, 428, 427
38, 38, 39, 104, 103, 363, 364, 429, 428
39, 39, 40, 105, 104, 364, 365, 430, 429
40, 40, 41, 106, 105, 365, 366, 431, 430
41, 41, 42, 107, 106, 366, 367, 432, 431
42, 42, 43, 108, 107, 367, 368, 433, 432
43, 43, 44, 109, 108, 368, 369, 434, 433
44, 44, 45, 110, 109, 369, 370, 435, 434
45, 45, 46, 111, 110, 370, 371, 436, 435
46, 46, 47, 112, 111, 371, 372, 437, 436
47, 47, 48, 113, 112, 372, 373, 438, 437
48, 48, 49, 114, 113, 373, 374, 439, 438
49, 49, 50, 115, 114, 374, 375, 440, 439
50, 50, 51, 116, 115, 375, 376, 441, 440
51, 51, 52, 117, 116, 376, 377, 442, 441
52, 52, 53, 118, 117, 377, 378, 443, 442
53, 53, 54, 119, 118, 378, 379, 444, 443
54, 54, 55, 120, 119, 379, 380, 445, 444
55, 55, 56, 121, 120, 380, 381, 446, 445
56, 56, 57, 122, 121, 381, 382, 447, 446
57, 57, 58, 123, 122, 382, 383, 448, 447
58, 58, 59, 124, 123, 383, 384, 449, 448
59, 59, 60, 125, 124, 384, 385, 450, 449
60, 60, 61, 126, 125, 385, 386, 451, 450
61, 61, 62, 127, 126, 386, 387, 452, 451
62, 62, 63, 128, 127, 387, 388, 453, 452
63, 63, 64, 129, 128, 388, 389, 454, 453
64, 64, 65, 130, 129, 389, 390, 455, 454
65, 66, 67, 132, 131, 391, 392, 457, 456
66, 67, 68, 133, 132, 392, 393, 458, 457
67, 68, 69, 134, 133, 393, 394, 459, 458
68, 69, 70, 135, 134, 394, 395, 460, 459
69, 70, 71, 136, 135, 395, 396, 461, 460
70, 71, 72, 137, 136, 396, 397, 462, 461
71, 72, 73, 138, 137, 397, 398, 463, 462
72, 73, 74, 139, 138, 398, 399, 464, 463
73, 74, 75, 140, 139, 399, 400, 465, 464
74, 75, 76, 141, 140, 400, 401, 466, 465
75, 76, 77, 142, 141, 401, 402, 467, 466
76, 77, 78, 143, 142, 402, 403, 468, 467
77, 78, 79, 144, 143, 403, 404, 469, 468
78, 79, 80, 145, 144, 404, 405, 470, 469
79, 80, 81, 146, 145, 405, 406, 471, 470
80, 81, 82, 147, 146, 406, 407, 472, 471
81, 82, 83, 148, 147, 407, 408, 473, 472
82, 83, 84, 149, 148, 408, 409, 474, 473
83, 84, 85, 150, 149, 409, 410, 475, 474
84, 85, 86, 151, 150, 410, 411, 476, 475
85, 86, 87, 152, 151, 411, 412, 477, 476
86, 87, 88, 153, 152, 412, 413, 478, 477
87, 88, 89, 154, 153, 413, 414, 479, 478
88, 89, 90, 155, 154, 414, 415, 480, 479
89, 90, 91, 156, 155, 415, 416, 481, 480
90, 91, 92, 157, 156, 416, 417, 482, 481
91, 92, 93, 158, 157, 417, 418, 483, 482
92, 93, 94, 159, 158, 418, 419, 484, 483
93, 94, 95, 160, 159, 419, 420, 485, 484
94, 95, 96, 161, 160, 420, 421, 486, 485
95, 96, 97, 162, 161, 421, 422, 487, 486
96, 97, 98, 163, 162, 422, 423, 488, 487
97, 98, 99, 164, 163, 423, 424, 489, 488
98, 99, 100, 165, 164, 424, 425, 490, 489
99, 100, 101, 166, 165, 425, 426, 491, 490
100, 101, 102, 167, 166, 426, 427, 492, 491
101, 102, 103, 168, 167, 427, 428, 493, 492
102, 103, 104, 169, 168, 428, 429, 494, 493
103, 104, 105, 170, 169, 429, 430, 495, 494
104, 105, 106, 171, 170, 430, 431, 496, 495
105, 106, 107, 172, 171, 431, 432, 497, 496
106, 107, 108, 173, 172, 432, 433, 498, 497
107, 108, 109, 174, 173, 433, 434, 499, 498
108, 109, 110, 175, 174, 434, 435, 500, 499
109, 110, 111, 176, 175, 435, 436, 501, 500
110, 111, 112, 177, 176, 436, 437, 502, 501
111, 112, 113, 178, 177, 437, 438, 503, 502
112, 113, 114, 179, 178, 438, 439, 504, 503
113, 114, 115, 180, 179, 439, 440, 505, 504
114, 115, 116, 181, 180, 440, 441, 506, 505
115, 116, 117, 182, 181, 441, 442, 507, 506
116, 117, 118, 183, 182, 442, 443, 508, 507
117, 118, 119, 184, 183, 443, 444, 509, 508
118, 119, 120, 185, 184, 444, 445, 510, 509
119, 120, 121, 186, 185, 445, 446, 511, 510
120, 121, 122, 187, 186, 446, 447, 512, 511
121, 122, 123, 188, 187, 447, 448, 513, 512
122, 123, 124, 189, 188, 448, 449, 514, 513
123, 124, 125, 190, 189, 449, 450, 515, 514
124, 125, 126, 191, 190, 450, 451, 516, 515
125, 126, 127, 192, 191, 451, 452, 517, 516
126, 127, 128, 193, 192, 452, 453, 518, 517
127, 128, 129, 194, 193, 453, 454, 519, 518
128, 129, 130, 195, 194, 454, 455, 520, 519
129, 131, 132, 197, 196, 456, 457, 522, 521
130, 132, 133, 198, 197, 457, 458, 523, 522
131, 133, 134, 199, 198, 458, 459, 524, 523
132, 134, 135, 200, 199, 459, 460, 525, 524
133, 135, 136, 201, 200, 460, 461, 526, 525
134, 136, 137, 202, 201, 461, 462, 527, 526
135, 137, 138, 203, 202, 462, 463, 528, 527
136, 138, 139, 204, 203, 463, 464, 529, 528
137, 139, 140, 205, 204, 464, 465, 530, 529
138, 140, 141, 206, 205, 465, 466, 531, 530
139, 141, 142, 207, 206, 466, 467, 532, 531
140, 142, 143, 208, 207, 467, 468, 533, 532
141, 143, 144, 209, 208, 468, 469, 534, 533
142, 144, 145, 210, 209, 469, 470, 535, 534
143, 145, 146, 211, 210, 470, 471, 536, 535
144, 146, 147, 212, 211, 471, 472, 537, 536
145, 147, 148, 213, 212, 472, 473, 538, 537
146, 148, 149, 214, 213, 473, 474, 539, 538
147, 149, 150, 215, 214, 474, 475, 540, 539
148, 150, 151, 216, 215, 475, 476, 541, 540
149, 151, 152, 217, 216, 476, 477, 542, 541
150, 152, 153, 218, 217, 477, 478, 543, 542
151, 153, 154, 219, 218, 478, 479, 544, 543
152, 154, 155, 220, 219, 479, 480, 545, 544
153, 155, 156, 221, 220, 480, 481, 546, 545
154, 156, 157, 222, 221, 481, 482, 547, 546
155, 157, 158, 223, 222, 482, 483, 548, 547
156, 158, 159, 224, 223, 483, 484, 549, 548
157, 159, 160, 225, 224, 484, 485, 550, 549
158, 160, 161, 226, 225, 485, 486, 551, 550
159, 161, 162, 227, 226, 486, 487, 552, 551
160, 162, 163, 228, 227, 487, 488, 553, 552
161, 163, 164, 229, 228, 488, 489, 554, 553
162, 164, 165, 230, 229, 489, 490, 555, 554
163, 165, 166, 231, 230, 490, 491, 556, 555
164, 166, 167, 232, 231, 491, 492, 557, 556
165, 167, 168, 233, 232, 492, 493, 558, 557
166, 168, 169, 234, 233, 493, 494, 559, 558
167, 169, 170, 235, 234, 494, 495, 560, 559
168, 170, 171, 236, 235, 495, 496, 561, 560
169, 171, 172, 237, 236, 496, 497, 562, 561
170, 172, 173, 238, 237, 497, 498, 563, 562
171, 173, 174, 239, 238, 498, 499, 564, 563
172, 174, 175, 240, 239, 499, 500, 565, 564
173, 175, 176, 241, 240, 500, 501, 566, 565
174, 176, 177, 242, 241, 501, 502, 567, 566
175, 177, 178, 243, 242, 502, 503, 568, 567
176, 178, 179, 244, 243, 503, 504, 569, 568
177, 179, 180, 245, 244, 504, 505, 570, 569
178, 180, 181, 246, 245, 505, 506, 571, 570
179, 181, 182, 247, 246, 506, 507, 572, 571
180, 182, 183, 248, 247, 507, 508, 573, 572
181, 183, 184, 249, 248, 508, 509, 574, 573
182, 184, 185, 250, 249, 509, 510, 575, 574
183, 185, 186, 251, 250, 510, 511, 576, 575
184, 186, 187, 252, 251, 511, 512, 577, 576
185, 187, 188, 253, 252, 512, 513, 578, 577
186, 188, 189, 254, 253, 513, 514, 579, 578
187, 189, 190, 255, 254, 514, 515, 580, 579
188, 190, 191, 256, 255, 515, 516, 581, 580
189, 191, 192, 257, 256, 516, 517, 582, 581
190, 192, 193, 258, 257, 517, 518, 583, 582
191, 193, 194, 259, 258, 518, 519, 584, 583
192, 194, 195, 260, 259, 519, 520, 585, 584
193, 196, 197, 262, 261, 521, 522, 587, 586
194, 197, 198, 263, 262, 522, 523, 588, 587
195, 198, 199, 264, 263, 523, 524, 589, 588
196, 199, 200, 265, 264, 524, 525, 590, 589
197, 200, 201, 266, 265, 525, 526, 591, 590
198, 201, 202, 267, 266, 526, 527, 592, 591
199, 202, 203, 268, 267, 527, 528, 593, 592
200, 203, 204, 269, 268, 528, 529, 594, 593
201, 204, 205, 270, 269, 529, 530, 595, 594
202, 205, 206, 271, 270, 530, 531, 596, 595
203, 206, 207, 272, 271, 531, 532, 597, 596
204, 207, 208, 273, 272, 532, 533, 598, 597
205, 208, 209, 274, 273, 533, 534, 599, 598
206, 209, 210, 275, 274, 534, 535, 600, 599
207, 210, 211, 276, 275, 535, 536, 601, 600
208, 211, 212, 277, 276, 536, 537, 602, 601
209, 212, 213, 278, 277, 537, 538, 603, 602
210, 213, 214, 279, 278, 538, 539, 604, 603
211, 214, 215, 280, 279, 539, 540, 605, 604
212, 215, 216, 281, 280, 540, 541, 606, 605
213, 216, 217, 282, 281, 541, 542, 607, 606
214, 217, 218, 283, 282, 542, 543, 608, 607
215, 218, 219, 284, 283, 543, 544, 609, 608
216, 219, 220, 285, 284, 544, 545, 610, 609
217, 220, 221, 286, 285, 545, 546, 611, 610
218, 221, 222, 287, 286, 546, 547, 612, 611
219, 222, 223, 288, 287, 547, 548, 613, 612
220, 223, 224, 289, 288, 548, 549, 614, 613
221, 224, 225, 290, 289, 549, 550, 615, 614
222, 225, 226, 291, 290, 550, 551, 616, 615
223, 226, 227, 292, 291, 551, 552, 617, 616
224, 227, 228, 293, 292, 552, 553, 618, 617
225, 228, 229, 294, 293, 553, 554, 619, 618
226, 229, 230, 295, 294, 554, 555, 620, 619
227, 230, 231, 296, 295, 555, 556, 621, 620
228, 231, 232, 297, 296, 556, 557, 622, 621
229, 232, 233, 298, 297, 557, 558, 623, 622
230, 233, 234, 299, 298, 558, 559, 624, 623
231, 234, 235, 300, 299, 559, 560, 625, 624
232, 235, 236, 301, 300, 560, 561, 626, 625
233, 236, 237, 302, 301, 561, 562, 627, 626
234, 237, 238, 303, 302, 562, 563, 628, 627
235, 238, 239, 304, 303, 563, 564, 629, 628
236, 239, 240, 305, 304, 564, 565, 630, 629
237, 240, 241, 306, 305, 565, 566, 631, 630
238, 241, 242, 307, 306, 566, 567, 632, 631
239, 242, 243, 308, 307, 567, 568, 633, 632
240, 243, 244, 309, 308, 568, 569, 634, 633
241, 244, 245, 310, 309, 569, 570, 635, 634
242, 245, 246, 311, 310, 570, 571, 636, 635
243, 246, 247, 312, 311, 571, 572, 637, 636
244, 247, 248, 313, 312, 572, 573, 638, 637
245, 248, 249, 314, 313, 573, 574, 639, 638
246, 249, 250, 315, 314, 574, 575, 640, 639
247, 250, 251, 316, 315, 575, 576, 641, 640
248, 251, 252, 317, 316, 576, 577, 642, 641
249, 252, 253, 318, 317, 577, 578, 643, 642
250, 253, 254, 319, 318, 578, 579, 644, 643
251, 254, 255, 320, 319, 579, 580, 645, 644
252, 255, 256, 321, 320, 580, 581, 646, 645
253, 256, 257, 322, 321, 581, 582, 647, 646
254, 257, 258, 323, 322, 582, 583, 648, 647
255, 258, 259, 324, 323, 583, 584, 649, 648
256, 259, 260, 325, 324, 584, 585, 650, 649
257, 326, 327, 392, 391, 651, 652, 717, 716
258, 327, 328, 393, 392, 652, 653, 718, 717
259, 328, 329, 394, 393, 653, 654, 719, 718
260, 329, 330, 395, 394, 654, 655, 720, 719
261, 330, 331, 396, 395, 655, 656, 721, 720
262, 331, 332, 397, 396, 656, 657, 722, 721
263, 332, 333, 398, 397, 657, 658, 723, 722
264, 333, 334, 399, 398, 658, 659, 724, 723
265, 334, 335, 400, 399, 659, 660, 725, 724
266, 335, 336, 401, 400, 660, 661, 726, 725
267, 336, 337, 402, 401, 661, 662, 727, 726
268, 337, 338, 403, 402, 662, 663, 728, 727
269, 338, 339, 404, 403, 663, 664, 729, 728
270, 339, 340, 405, 404, 664, 665, 730, 729
271, 340, 341, 406, 405, 665, 666, 731, 730
272, 341, 342, 407, 406, 666, 667, 732, 731
273, 342, 343, 408, 407, 667, 668, 733, 732
274, 343, 344, 409, 408, 668, 669, 734, 733
275, 344, 345, 410, 409, 669, 670, 735, 734
276, 345, 346, 411, 410, 670, 671, 736, 735
277, 346, 347, 412, 411, 671, 672, 737, 736
278, 347, 348, 413, 412, 672, 673, 738, 737
279, 348, 349, 414, 413, 673, 674, 739, 738
280, 349, 350, 415, 414, 674, 675, 740, 739
281, 350, 351, 416, 415, 675, 676, 741, 740
282, 351, 352, 417, 416, 676, 677, 742, 741
283, 352, 353, 418, 417, 677, 678, 743, 742
284, 353, 354, 419, 418, 678, 679, 744, 743
285, 354, 355, 420, 419, 679, 680, 745, 744
286, 355, 356, 421, 420, 680, 681, 746, 745
287, 356, 357, 422, 421, 681, 682, 747, 746
288, 357, 358, 423, 422, 682, 683, 748, 747
289, 358, 359, 424, 423, 683, 684, 749, 748
290, 359, 360, 425, 424, 684, 685, 750, 749
291, 360, 361, 426, 425, 685, 686, 751, 750
292, 361, 362, 427, 426, 686, 687, 752, 751
293, 362, 363, 428, 427, 687, 688, 753, 752
294, 363, 364, 429, 428, 688, 689, 754, 753
295, 364, 365, 430, 429, 689, 690, 755, 754
296, 365, 366, 431, 430, 690, 691, 756, 755
297, 366, 367, 432, 431, 691, 692, 757, 756
298, 367, 368, 433, 432, 692, 693, 758, 757
299, 368, 369, 434, 433, 693, 694, 759, 758
300, 369, 370, 435, 434, 694, 695, 760, 759
301, 370, 371, 436, 435, 695, 696, 761, 760
302, 371, 372, 437, 436, 696, 697, 762, 761
303, 372, 373, 438, 437, 697, 698, 763, 762
304, 373, 374, 439, 438, 698, 699, 764, 763
305, 374, 375, 440, 439, 699, 700, 765, 764
306, 375, 376, 441, 440, 700, 701, 766, 765
307, 376, 377, 442, 441, 701, 702, 767, 766
308, 377, 378, 443, 442, 702, 703, 768, 767
309, 378, 379, 444, 443, 703, 704, 769, 768
310, 379, 380, 445, 444, 704, 705, 770, 769
311, 380, 381, 446, 445, 705, 706, 771, 770
312, 381, 382, 447, 446, 706, 707, 772, 771
313, 382, 383, 448, 447, 707, 708, 773, 772
314, 383, 384, 449, 448, 708, 709, 774, 773
315, 384, 385, 450, 449, 709, 710, 775, 774
316, 385, 386, 451, 450, 710, 711, 776, 775
317, 386, 387, 452, 451, 711, 712, 777, 776
318, 387, 388, 453, 452, 712, 713, 778, 777
319, 388, 389, 454, 453, 713, 714, 779, 778
320, 389, 390, 455, 454, 714, 715, 780, 779
321, 391, 392, 457, 456, 716, 717, 782, 781
322, 392, 393, 458, 457, 717, 718, 783, 782
323, 393, 394, 459, 458, 718, 719, 784, 783
324, 394, 395, 460, 459, 719, 720, 785, 784
325, 395, 396, 461, 460, 720, 721, 786, 785
326, 396, 397, 462, 461, 721, 722, 787, 786
327, 397, 398, 463, 462, 722, 723, 788, 787
328, 398, 399, 464, 463, 723, 724, 789, 788
329, 399, 400, 465, 464, 724, 725, 790, 789
330, 400, 401, 466, 465, 725, 726, 791, 790
331, 401, 402, 467, 466, 726, 727, 792, 791
332, 402, 403, 468, 467, 727, 728, 793, 792
333, 403, 404, 469, 468, 728, 729, 794, 793
334, 404, 405, 470, 469, 729, 730, 795, 794
335, 405, 406, 471, 470, 730, 731, 796, 795
336, 406, 407, 472, 471, 731, 732, 797, 796
337, 407, 408, 473, 472, 732, 733, 798, 797
338, 408, 409, 474, 473, 733, 734, 799, 798
339, 409, 410, 475, 474, 734, 735, 800, 799
340, 410, 411, 476, 475, 735, 736, 801, 800
341, 411, 412, 477, 476, 736, 737, 802, 801
342, 412, 413, 478, 477, 737, 738, 803, 802
343, 413, 414, 479, 478, 738, 739, 804, 803
344, 414, 415, 480, 479, 739, 740, 805, 804
345, 415, 416, 481, 480, 740, 741, 806, 805
346, 416, 417, 482, 481, 741, 742, 807, 806
347, 417, 418, 483, 482, 742, 743, 808, 807
348, 418, 419, 484, 483, 743, 744, 809, 808
349, 419, 420, 485, 484, 744, 745, 810, 809
350, 420, 421, 486, 485, 745, 746, 811, 810
351, 421, 422, 487, 486, 746, 747, 812, 811
352, 422, 423, 488, 487, 747, 748, 813, 812
353, 423, 424, 489, 488, 748, 749, 814, 813
354, 424, 425, 490, 489, 749, 750, 815, 814
355, 425, 426, 491, 490, 750, 751, 816, 815
356, 426, 427, 492, 491, 751, 752, 817, 816
357, 427, 428, 493, 492, 752, 753, 818, 817
358, 428, 429, 494, 493, 753, 754, 819, 818
359, 429, 430, 495, 494, 754, 755, 820, 819
360, 430, 431, 496, 495, 755, 756, 821, 820
361, 431, 432, 497, 496, 756, 757, 822, 821
362, 432, 433, 498, 497, 757, 758, 823, 822
363, 433, 434, 499, 498, 758, 759, 824, 823
364, 434, 435, 500, 499, 759, 760, 825, 824
365, 435, 436, 501, 500, 760, 761, 826, 825
366, 436, 437, 502, 501, 761, 762, 827, 826
367, 437, 438, 503, 502, 762, 763, 828, 827
368, 438, 439, 504, 503, 763, 764, 829, 828
369, 439, 440, 505, 504, 764, 765, 830, 829
370, 440, 441, 506, 505, 765, 766, 831, 830
371, 441, 442, 507, 506, 766, 767, 832, 831
372, 442, 443, 508, 507, 767, 768, 833, 832
373, 443, 444, 509, 508, 768, 769, 834, 833
374, 444, 445, 510, 509, 769, 770, 835, 834
375, 445, 446, 511, 510, 770, 771, 836, 835
376, 446, 447, 512, 511, 771, 772, 837, 836
377, 447, 448, 513, 512, 772, 773, 838, 837
378, 448, 449, 514, 513, 773, 774, 839, 838
379, 449, 450, 515, 514, 774, 775, 840, 839
380, 450, 451, 516, 515, 775, 776, 841, 840
381, 451, 452, 517, 516, 776, 777, 842, 841
382, 452, 453, 518, 517, 777, 778, 843, 842
383, 453, 454, 519, 518, 778, 779, 844, 843
384, 454, 455, 520, 519, 779, 780, 845, 844
385, 456, 457, 522, 521, 781, 782, 847, 846
386, 457, 458, 523, 522, 782, 783, 848, 847
387, 458, 459, 524, 523, 783, 784, 849, 848
388, 459, 460, 525, 524, 784, 785, 850, 849
389, 460, 461, 526, 525, 785, 786, 851, 850
390, 461, 462, 527, 526, 786, 787, 852, 851
391, 462, 463, 528, 527, 787, 788, 853, 852
392, 463, 464, 529, 528, 788, 789, 854, 853
393, 464, 465, 530, 529, 789, 790, 855, 854
394, 465, 466, 531, 530, 790, 791, 856, 855
395, 466, 467, 532, 531, 791, 792, 857, 856
396, 467, 468, 533, 532, 792, 793, 858, 857
397, 468, 469, 534, 533, 793, 794, 859, 858
398, 469, 470, 535, 534, 794, 795, 860, 859
399, 470, 471, 536, 535, 795, 796, 861, 860
400, 471, 472, 537, 536, 796, 797, 862, 861
401, 472, 473, 538, 537, 797, 798, 863, 862
402, 473, 474, 539, 538, 798, 799, 864, 863
403, 474, 475, 540, 539, 799, 800, 865, 864
404, 475, 476, 541, 540, 800, 801, 866, 865
405, 476, 477, 542, 541, 801, 802, 867, 866
406, 477, 478, 543, 542, 802, 803, 868, 867
407, 478, 479, 544, 543, 803, 804, 869, 868
408, 479, 480, 545, 544, 804, 805, 870, 869
409, 480, 481, 546, 545, 805, 806, 871, 870
410, 481, 482, 547, 546, 806, 807, 872, 871
411, 482, 483, 548, 547, 807, 808, 873, 872
412, 483, 484, 549, 548, 808, 809, 874, 873
413, 484, 485, 550, 549, 809, 810, 875, 874
414, 485, 486, 551, 550, 810, 811, 876, 875
415, 486, 487, 552, 551, 811, 812, 877, 876
416, 487, 488, 553, 552, 812, 813, 878, 877
417, 488, 489, 554, 553, 813, 814, 879, 878
418, 489, 490, 555, 554, 814, 815, 880, 879
419, 490, 491, 556, 555, 815, 816, 881, 880
420, 491, 492, 557, 556, 816, 817, 882, 881
421, 492, 493, 558, 557, 817, 818, 883, 882
422, 493, 494, 559, 558, 818, 819, 884, 883
423, 494, 495, 560, 559, 819, 820, 885, 884
424, 495, 496, 561, 560, 820, 821, 886, 885
425, 496, 497, 562, 561, 821, 822, 887, 886
426, 497, 498, 563, 562, 822, 823, 888, 887
427, 498, 499, 564, 563, 823, 824, 889, 888
428, 499, 500, 565, 564, 824, 825, 890, 889
429, 500, 501, 566, 565, 825, 826, 891, 890
430, 501, 502, 567, 566, 826, 827, 892, 891
431, 502, 503, 568, 567, 827, 828, 893, 892
432, 503, 504, 569, 568, 828, 829, 894, 893
433, 504, 505, 570, 569, 829, 830, 895, 894
434, 505, 506, 571, 570, 830, 831, 896, 895
435, 506, 507, 572, 571, 831, 832, 897, 896
436, 507, 508, 573, 572, 832, 833, 898, 897
437, 508, 509, 574, 573, 833, 834, 899, 898
438, 509, 510, 575, 574, 834, 835, 900, 899
439, 510, 511, 576, 575, 835, 836, 901, 900
440, 511, 512, 577, 576, 836, 837, 902, 901
441, 512, 513, 578, 577, 837, 838, 903, 902
442, 513, 514, 579, 578, 838, 839, 904, 903
443, 514, 515, 580, 579, 839, 840, 905, 904
444, 515, 516, 581, 580, 840, 841, 906, 905
445, 516, 517, 582, 581, 841, 842, 907, 906
446, 517, 518, 583, 582, 842, 843, 908, 907
447, 518, 519, 584, 583, 843, 844, 909, 908
448, 519, 520, 585, 584, 844, 845, 910, 909
449, 521, 522, 587, 586, 846, 847, 912, 911
450, 522, 523, 588, 587, 847, 848, 913, 912
451, 523, 524, 589, 588, 848, 849, 914, 913
452, 524, 525, 590, 589, 849, 850, 915, 914
453, 525, 526, 591, 590, 850, 851, 916, 915
454, 526, 527, 592, 591, 851, 852, 917, 916
455, 527, 528, 593, 592, 852, 853, 918, 917
456, 528, 529, 594, 593, 853, 854, 919, 918
457, 529, 530, 595, 594, 854, 855, 920, 919
458, 530, 531, 596, 595, 855, 856, 921, 920
459, 531, 532, 597, 596, 856, 857, 922, 921
460, 532, 533, 598, 597, 857, 858, 923, 922
461, 533, 534, 599, 598, 858, 859, 924, 923
462, 534, 535, 600, 599, 859, 860, 925, 924
463, 535, 536, 601, 600, 860, 861, 926, 925
464, 536, 537, 602, 601, 861, 862, 927, 926
465, 537, 538, 603, 602, 862, 863, 928, 927
466, 538, 539, 604, 603, 863, 864, 929, 928
467, 539, 540, 605, 604, 864, 865, 930, 929
468, 540, 541, 606, 605, 865, 866, 931, 930
469, 541, 542, 607, 606, 866, 867, 932, 931
470, 542, 543, 608, 607, 867, 868, 933, 932
471, 543, 544, 609, 608, 868, 869, 934, 933
472, 544, 545, 610, 609, 869, 870, 935, 934
473, 545, 546, 611, 610, 870, 871, 936, 935
474, 546, 547, 612, 611, 871, 872, 937, 936
475, 547, 548, 613, 612, 872, 873, 938, 937
476, 548, 549, 614, 613, 873, 874, 939, 938
477, 549, 550, 615, 614, 874, 875, 940, 939
478, 550, 551, 616, 615, 875, 876, 941, 940
479, 551, 552, 617, 616, 876, 877, 942, 941
480, 552, 553, 618, 617, 877, 878, 943, 942
481, 553, 554, 619, 618, 878, 879, 944, 943
482, 554, 555, 620, 619, 879, 880, 945, 944
483, 555, 556, 621, 620, 880, 881, 946, 945
484, 556, 557, 622, 621, 881, 882, 947, 946
485, 557, 558, 623, 622, 882, 883, 948, 947
486, 558, 559, 624, 623, 883, 884, 949, 948
487, 559, 560, 625, 624, 884, 885, 950, 949
488, 560, 561, 626, 625, 885, 886, 951, 950
489, 561, 562, 627, 626, 886, 887, 952, 951
490, 562, 563, 628, 627, 887, 888, 953, 952
491, 563, 564, 629, 628, 888, 889, 954, 953
492, 564, 565, 630, 629, 889, 890, 955, 954
493, 565, 566, 631, 630, 890, 891, 956, 955
494, 566, 567, 632, 631, 891, 892, 957, 956
495, 567, 568, 633, 632, 892, 893, 958, 957
496, 568, 569, 634, 633, 893, 894, 959, 958
497, 569, 570, 635, 634, 894, 895, 960, 959
498, 570, 571, 636, 635, 895, 896, 961, 960
499, 571, 572, 637, 636, 896, 897, 962, 961
500, 572, 573, 638, 637, 897, 898, 963, 962
501, 573, 574, 639, 638, 898, 899, 964, 963
502, 574, 575, 640, 639, 899, 900, 965, 964
503, 575, 576, 641, 640, 900, 901, 966, 965
504, 576, 577, 642, 641, 901, 902, 967, 966
505, 577, 578, 643, 642, 902, 903, 968, 967
506, 578, 579, 644, 643, 903, 904, 969, 968
507, 579, 580, 645, 644, 904, 905, 970, 969
508, 580, 581, 646, 645, 905, 906, 971, 970
509, 581, 582, 647, 646, 906, 907, 972, 971
510, 582, 583, 648, 647, 907, 908, 973, 972
511, 583, 584, 649, 648, 908, 909, 974, 973
512, 584, 585, 650, 649, 909, 910, 975, 974
513, 651, 652, 717, 716, 976, 977, 1042, 1041
514, 652, 653, 718, 717, 977, 978, 1043, 1042
515, 653, 654, 719, 718, 978, 979, 1044, 1043
516, 654, 655, 720, 719, 979, 980, 1045, 1044
517, 655, 656, 721, 720, 980, 981, 1046, 1045
518, 656, 657, 722, 721, 981, 982, 1047, 1046
519, 657, 658, 723, 722, 982, 983, 1048, 1047
520, 658, 659, 724, 723, 983, 984, 1049, 1048
521, 659, 660, 725, 724, 984, 985, 1050, 1049
522, 660, 661, 726, 725, 985, 986, 1051, 1050
523, 661, 662, 727, 726, 986, 987, 1052, 1051
524, 662, 663, 728, 727, 987, 988, 1053, 1052
525, 663, 664, 729, 728, 988, 989, 1054, 1053
526, 664, 665, 730, 729, 989, 990, 1055, 1054
527, 665, 666, 731, 730, 990, 991, 1056, 1055
528, 666, 667, 732, 731, 991, 992, 1057, 1056
529, 667, 668, 733, 732, 992, 993, 1058, 1057
530, 668, 669, 734, 733, 993, 994, 1059, 1058
531, 669, 670, 735, 734, 994, 995, 1060, 1059
532, 670, 671, 736, 735, 995, 996, 1061, 1060
533, 671, 672, 737, 736, 996, 997, 1062, 1061
534, 672, 673, 738, 737, 997, 998, 1063, 1062
535, 673, 674, 739, 738, 998, 999, 1064, 1063
536, 674, 675, 740, 739, 999, 1000, 1065, 1064
537, 675, 676, 741, 740, 1000, 1001, 1066, 1065
538, 676, 677, 742, 741, 1001, 1002, 1067, 1066
539, 677, 678, 743, 742, 1002, 1003, 1068, 1067
540, 678, 679, 744, 743, 1003, 1004, 1069, 1068
541, 679, 680, 745, 744, 1004, 1005, 1070, 1069
542, 680, 681, 746, 745, 1005, 1006, 1071, 1070
543, 681, 682, 747, 746, 1006, 1007, 1072, 1071
544, 682, 683, 748, 747, 1007, 1008, 1073, 1072
545, 683, 684, 749, 748, 1008, 1009, 1074, 1073
546, 684, 685, 750, 749, 1009, 1010, 1075, 1074
547, 685, 686, 751, 750, 1010, 1011, 1076, 1075
548, 686, 687, 752, 751, 1011, 1012, 1077, 1076
549, 687, 688, 753, 752, 1012, 1013, 1078, 1077
550, 688, 689, 754, 753, 1013, 1014, 1079, 1078
551, 689, 690, 755, 754, 1014, 1015, 1080, 1079
552, 690, 691, 756, 755, 1015, 1016, 1081, 1080
553, 691, 692, 757, 756, 1016, 1017, 1082, 1081
554, 692, 693, 758, 757, 1017, 1018, 1083, 1082
555, 693, 694, 759, 758, 1018, 1019, 1084, 1083
556, 694, 695, 760, 759, 1019, 1020, 1085, 1084
557, 695, 696, 761, 760, 1020, 1021, 1086, 1085
558, 696, 697, 762, 761, 1021, 1022, 1087, 1086
559, 697, 698, 763, 762, 1022, 1023, 1088, 1087
560, 698, 699, 764, 763, 1023, 1024, 1089, 1088
561, 699, 700, 765, 764, 1024, 1025, 1090, 1089
562, 700, 701, 766, 765, 1025, 1026, 1091, 1090
563, 701, 702, 767, 766, 1026, 1027, 1092, 1091
564, 702, 703, 768, 767, 1027, 1028, 1093, 1092
565, 703, 704, 769, 768, 1028, 1029, 1094, 1093
566, 704, 705, 770, 769, 1029, 1030, 1095, 1094
567, 705, 706, 771, 770, 1030, 1031, 1096, 1095
568, 706, 707, 772, 771, 1031, 1032, 1097, 1096
569, 707, 708, 773, 772, 1032, 1033, 1098, 1097
570, 708, 709, 774, 773, 1033, 1034, 1099, 1098
571, 709, 710, 775, 774, 1034, 1035, 1100, 1099
572, 710, 711, 776, 775, 1035, 1036, 1101, 1100
573, 711, 712, 777, 776, 1036, 1037, 1102, 1101
574, 712, 713, 778, 777, 1037, 1038, 1103, 1102
575, 713, 714, 779, 778, 1038, 1039, 1104, 1103
576, 714, 715, 780, 779, 1039, 1040, 1105, 1104
577, 716, 717, 782, 781, 1041, 1042, 1107, 1106
578, 717, 718, 783, 782, 1042, 1043, 1108, 1107
579, 718, 719, 784, 783, 1043, 1044, 1109, 1108
580, 719, 720, 785, 784, 1044, 1045, 1110, 1109
581, 720, 721, 786, 785, 1045, 1046, 1111, 1110
582, 721, 722, 787, 786, 1046, 1047, 1112, 1111
583, 722, 723, 788, 787, 1047, 1048, 1113, 1112
584, 723, 724, 789, 788, 1048, 1049, 1114, 1113
585, 724, 725, 790, 789, 1049, 1050, 1115, 1114
586, 725, 726, 791, 790, 1050, 1051, 1116, 1115
587, 726, 727, 792, 791, 1051, 1052, 1117, 1116
588, 727, 728, 793, 792, 1052, 1053, 1118, 1117
589, 728, 729, 794, 793, 1053, 1054, 1119, 1118
590, 729, 730, 795, 794, 1054, 1055, 1120, 1119
591, 730, 731, 796, 795, 1055, 1056, 1121, 1120
592, 731, 732, 797, 796, 1056, 1057, 1122, 1121
593, 732, 733, 798, 797, 1057, 1058, 1123, 1122
594, 733, 734, 799, 798, 1058, 1059, 1124, 1123
595, 734, 735, 800, 799, 1059, 1060, 1125, 1124
596, 735, 736, 801, 800, 1060, 1061, 1126, 1125
597, 736, 737, 802, 801, 1061, 1062, 1127, 1126
598, 737, 738, 803, 802, 1062, 1063, 1128, 1127
599, 738, 739, 804, 803, 1063, 1064, 1129, 1128
600, 739, 740, 805, 804, 1064, 1065, 1130, 1129
601, 740, 741, 806, 805, 1065, 1066, 1131, 1130
602, 741, 742, 807, 806, 1066, 1067, 1132, 1131
603, 742, 743, 808, 807, 1067, 1068, 1133, 1132
604, 743, 744, 809, 808, 1068, 1069, 1134, 1133
605, 744, 745, 810, 809, 1069, 1070, 1135, 1134
606, 745, 746, 811, 810, 1070, 1071, 1136, 1135
607, 746, 747, 812, 811, 1071, 1072, 1137, 1136
608, 747, 748, 813, 812, 1072, 1073, 1138, 1137
609, 748, 749, 814, 813, 1073, 1074, 1139, 1138
610, 749, 750, 815, 814, 1074, 1075, 1140, 1139
611, 750, 751, 816, 815, 1075, 1076, 1141, 1140
612, 751, 752, 817, 816, 1076, 1077, 1142, 1141
613, 752, 753, 818, 817, 1077, 1078, 1143, 1142
614, 753, 754, 819, 818, 1078, 1079, 1144, 1143
615, 754, 755, 820, 819, 1079, 1080, 1145, 1144
616, 755, 756, 821, 820, 1080, 1081, 1146, 1145
617, 756, 757, 822, 821, 1081, 1082, 1147, 1146
618, 757, 758, 823, 822, 1082, 1083, 1148, 1147
619, 758, 759, 824, 823, 1083, 1084, 1149, 1148
620, 759, 760, 825, 824, 1084, 1085, 1150, 1149
621, 760, 761, 826, 825, 1085, 1086, 1151, 1150
622, 761, 762, 827, 826, 1086, 1087, 1152, 1151
623, 762, 763, 828, 827, 1087, 1088, 1153, 1152
624, 763, 764, 829, 828, 1088, 1089, 1154, 1153
625, 764, 765, 830, 829, 1089, 1090, 1155, 1154
626, 765, 766, 831, 830, 1090, 1091, 1156, 1155
627, 766, 767, 832, 831, 1091, 1092, 1157, 1156
628, 767, 768, 833, 832, 1092, 1093, 1158, 1157
629, 768, 769, 834, 833, 1093, 1094, 1159, 1158
630, 769, 770, 835, 834, 1094, 1095, 1160, 1159
631, 770, 771, 836, 835, 1095, 1096, 1161, 1160
632, 771, 772, 837, 836, 1096, 1097, 1162, 1161
633, 772, 773, 838, 837, 1097, 1098, 1163, 1162
634, 773, 774, 839, 838, 1098, 1099, 1164, 1163
635, 774, 775, 840, 839, 1099, 1100, 1165, 1164
636, 775, 776, 841, 840, 1100, 1101, 1166, 1165
637, 776, 777, 842, 841, 1101, 1102, 1167, 1166
638, 777, 778, 843, 842, 1102, 1103, 1168, 1167
639, 778, 779, 844, 843, 1103, 1104, 1169, 1168
640, 779, 780, 845, 844, 1104, 1105, 1170, 1169
641, 781, 782, 847, 846, 1106, 1107, 1172, 1171
642, 782, 783, 848, 847, 1107, 1108, 1173, 1172
643, 783, 784, 849, 848, 1108, 1109, 1174, 1173
644, 784, 785, 850, 849, 1109, 1110, 1175, 1174
645, 785, 786, 851, 850, 1110, 1111, 1176, 1175
646, 786, 787, 852, 851, 1111, 1112, 1177, 1176
647, 787, 788, 853, 852, 1112, 1113, 1178, 1177
648, 788, 789, 854, 853, 1113, 1114, 1179, 1178
649, 789, 790, 855, 854, 1114, 1115, 1180, 1179
650, 790, 791, 856, 855, 1115, 1116, 1181, 1180
651, 791, 792, 857, 856, 1116, 1117, 1182, 1181
652, 792, 793, 858, 857, 1117, 1118, 1183, 1182
653, 793, 794, 859, 858, 1118, 1119, 1184, 1183
654, 794, 795, 860, 859, 1119, 1120, 1185, 1184
655, 795, 796, 861, 860, 1120, 1121, 1186, 1185
656, 796, 797, 862, 861, 1121, 1122, 1187, 1186
657, 797, 798, 863, 862, 1122, 1123, 1188, 1187
658, 798, 799, 864, 863, 1123, 1124, 1189, 1188
659, 799, 800, 865, 864, 1124, 1125, 1190, 1189
660, 800, 801, 866, 865, 1125, 1126, 1191, 1190
661, 801, 802, 867, 866, 1126, 1127, 1192, 1191
662, 802, 803, 868, 867, 1127, 1128, 1193, 1192
663, 803, 804, 869, 868, 1128, 1129, 1194, 1193
664, 804, 805, 870, 869, 1129, 1130, 1195, 1194
665, 805, 806, 871, 870, 1130, 1131, 1196, 1195
666, 806, 807, 872, 871, 1131, 1132, 1197, 1196
667, 807, 808, 873, 872, 1132, 1133, 1198, 1197
668, 808, 809, 874, 873, 1133, 1134, 1199, 1198
669, 809, 810, 875, 874, 1134, 1135, 1200, 1199
670, 810, 811, 876, 875, 1135, 1136, 1201, 1200
671, 811, 812, 877, 876, 1136, 1137, 1202, 1201
672, 812, 813, 878, 877, 1137, 1138, 1203, 1202
673, 813, 814, 879, 878, 1138, 1139, 1204, 1203
674, 814, 815, 880, 879, 1139, 1140, 1205, 1204
675, 815, 816, 881, 880, 1140, 1141, 1206, 1205
676, 816, 817, 882, 881, 1141, 1142, 1207, 1206
677, 817, 818, 883, 882, 1142, 1143, 1208, 1207
678, 818, 819, 884, 883, 1143, 1144, 1209, 1208
679, 819, 820, 885, 884, 1144, 1145, 1210, 1209
680, 820, 821, 886, 885, 1145, 1146, 1211, 1210
681, 821, 822, 887, 886, 1146, 1147, 1212, 1211
682, 822, 823, 888, 887, 1147, 1148, 1213, 1212
683, 823, 824, 889, 888, 1148, 1149, 1214, 1213
684, 824, 825, 890, 889, 1149, 1150, 1215, 1214
685, 825, 826, 891, 890, 1150, 1151, 1216, 1215
686, 826, 827, 892, 891, 1151, 1152, 1217, 1216
687, 827, 828, 893, 892, 1152, 1153, 1218, 1217
688, 828, 829, 894, 893, 1153, 1154, 1219, 1218
689, 829, 830, 895, 894, 1154, 1155, 1220, 1219
690, 830, 831, 896, 895, 1155, 1156, 1221, 1220
691, 831, 832, 897, 896, 1156, 1157, 1222, 1221
692, 832, 833, 898, 897, 1157, 1158, 1223, 1222
693, 833, 834, 899, 898, 1158, 1159, 1224, 1223
694, 834, 835, 900, 899, 1159, 1160, 1225, 1224
695, 835, 836, 901, 900, 1160, 1161, 1226, 1225
696, 836, 837, 902, 901, 1161, 1162, 1227, 1226
697, 837, 838, 903, 902, 1162, 1163, 1228, 1227
698, 838, 839, 904, 903, 1163, 1164, 1229, 1228
699, 839, 840, 905, 904, 1164, 1165, 1230, 1229
700, 840, 841, 906, 905, 1165, 1166, 1231, 1230
701, 841, 842, 907, 906, 1166, 1167, 1232, 1231
702, 842, 843, 908, 907, 1167, 1168, 1233, 1232
703, 843, 844, 909, 908, 1168, 1169, 1234, 1233
704, 844, 845, 910, 909, 1169, 1170, 1235, 1234
705, 846, 847, 912, 911, 1171, 1172, 1237, 1236
706, 847, 848, 913, 912, 1172, 1173, 1238, 1237
707, 848, 849, 914, 913, 1173, 1174, 1239, 1238
708, 849, 850, 915, 914, 1174, 1175, 1240, 1239
709, 850, 851, 916, 915, 1175, 1176, 1241, 1240
710, 851, 852, 917, 916, 1176, 1177, 1242, 1241
711, 852, 853, 918, 917, 1177, 1178, 1243, 1242
712, 853, 854, 919, 918, 1178, 1179, 1244, 1243
713, 854, 855, 920, 919, 1179, 1180, 1245, 1244
714, 855, 856, 921, 920, 1180, 1181, 1246, 1245
715, 856, 857, 922, 921, 1181, 1182, 1247, 1246
716, 857, 858, 923, 922, 1182, 1183, 1248, 1247
717, 858, 859, 924, 923, 1183, 1184, 1249, 1248
718, 859, 860, 925, 924, 1184, 1185, 1250, 1249
719, 860, 861, 926, 925, 1185, 1186, 1251, 1250
720, 861, 862, 927, 926, 1186, 1187, 1252, 1251
721, 862, 863, 928, 927, 1187, 1188, 1253, 1252
722, 863, 864, 929, 928, 1188, 1189, 1254, 1253
723, 864, 865, 930, 929, 1189, 1190, 1255, 1254
724, 865, 866, 931, 930, 1190, 1191, 1256, 1255
725, 866, 867, 932, 931, 1191, 1192, 1257, 1256
726, 867, 868, 933, 932, 1192, 1193, 1258, 1257
727, 868, 869, 934, 933, 1193, 1194, 1259, 1258
728, 869, 870, 935, 934, 1194, 1195, 1260, 1259
729, 870, 871, 936, 935, 1195, 1196, 1261, 1260
730, 871, 872, 937, 936, 1196, 1197, 1262, 1261
731, 872, 873, 938, 937, 1197, 1198, 1263, 1262
732, 873, 874, 939, 938, 1198, 1199, 1264, 1263
733, 874, 875, 940, 939, 1199, 1200, 1265, 1264
734, 875, 876, 941, 940, 1200, 1201, 1266, 1265
735, 876, 877, 942, 941, 1201, 1202, 1267, 1266
736, 877, 878, 943, 942, 1202, 1203, 1268, 1267
737, 878, 879, 944, 943, 1203, 1204, 1269, 1268
738, 879, 880, 945, 944, 1204, 1205, 1270, 1269
739, 880, 881, 946, 945, 1205, 1206, 1271, 1270
740, 881, 882, 947, 946, 1206, 1207, 1272, 1271
741, 882, 883, 948, 947, 1207, 1208, 1273, 1272
742, 883, 884, 949, 948, 1208, 1209, 1274, 1273
743, 884, 885, 950, 949, 1209, 1210, 1275, 1274
744, 885, 886, 951, 950, 1210, 1211, 1276, 1275
745, 886, 887, 952, 951, 1211, 1212, 1277, 1276
746, 887, 888, 953, 952, 1212, 1213, 1278, 1277
747, 888, 889, 954, 953, 1213, 1214, 1279, 1278
748, 889, 890, 955, 954, 1214, 1215, 1280, 1279
749, 890, 891, 956, 955, 1215, 1216, 1281, 1280
750, 891, 892, 957, 956, 1216, 1217, 1282, 1281
751, 892, 893, 958, 957, 1217, 1218, 1283, 1282
752, 893, 894, 959, 958, 1218, 1219, 1284, 1283
753, 894, 895, 960, 959, 1219, 1220, 1285, 1284
754, 895, 896, 961, 960, 1220, 1221, 1286, 1285
755, 896, 897, 962, 961, 1221, 1222, 1287, 1286
756, 897, 898, 963, 962, 1222, 1223, 1288, 1287
757, 898, 899, 964, 963, 1223, 1224, 1289, 1288
758, 899, 900, 965, 964, 1224, 1225, 1290, 1289
759, 900, 901, 966, 965, 1225, 1226, 1291, 1290
760, 901, 902, 967, 966, 1226, 1227, 1292, 1291
761, 902, 903, 968, 967, 1227, 1228, 1293, 1292
762, 903, 904, 969, 968, 1228, 1229, 1294, 1293
763, 904, 905, 970, 969, 1229, 1230, 1295, 1294
764, 905, 906, 971, 970, 1230, 1231, 1296, 1295
765, 906, 907, 972, 971, 1231, 1232, 1297, 1296
766, 907, 908, 973, 972, 1232, 1233, 1298, 1297
767, 908, 909, 974, 973, 1233, 1234, 1299, 1298
768, 909, 910, 975, 974, 1234, 1235, 1300, 1299
769, 976, 977, 1042, 1041, 1301, 1302, 1367, 1366
770, 977, 978, 1043, 1042, 1302, 1303, 1368, 1367
771, 978, 979, 1044, 1043, 1303, 1304, 1369, 1368
772, 979, 980, 1045, 1044, 1304, 1305, 1370, 1369
773, 980, 981, 1046, 1045, 1305, 1306, 1371, 1370
774, 981, 982, 1047, 1046, 1306, 1307, 1372, 1371
775, 982, 983, 1048, 1047, 1307, 1308, 1373, 1372
776, 983, 984, 1049, 1048, 1308, 1309, 1374, 1373
777, 984, 985, 1050, 1049, 1309, 1310, 1375, 1374
778, 985, 986, 1051, 1050, 1310, 1311, 1376, 1375
779, 986, 987, 1052, 1051, 1311, 1312, 1377, 1376
780, 987, 988, 1053, 1052, 1312, 1313, 1378, 1377
781, 988, 989, 1054, 1053, 1313, 1314, 1379, 1378
782, 989, 990, 1055, 1054, 1314, 1315, 1380, 1379
783, 990, 991, 1056, 1055, 1315, 1316, 1381, 1380
784, 991, 992, 1057, 1056, 1316, 1317, 1382, 1381
785, 992, 993, 1058, 1057, 1317, 1318, 1383, 1382
786, 993, 994, 1059, 1058, 1318, 1319, 1384, 1383
787, 994, 995, 1060, 1059, 1319, 1320, 1385, 1384
788, 995, 996, 1061, 1060, 1320, 1321, 1386, 1385
789, 996, 997, 1062, 1061, 1321, 1322, 1387, 1386
790, 997, 998, 1063, 1062, 1322, 1323, 1388, 1387
791, 998, 999, 1064, 1063, 1323, 1324, 1389, 1388
792, 999, 1000, 1065, 1064, 1324, 1325, 1390, 1389
793, 1000, 1001, 1066, 1065, 1325, 1326, 1391, 1390
794, 1001, 1002, 1067, 1066, 1326, 1327, 1392, 1391
795, 1002, 1003, 1068, 1067, 1327, 1328, 1393, 1392
796, 1003, 1004, 1069, 1068, 1328, 1329, 1394, 1393
797, 1004, 1005, 1070, 1069, 1329, 1330, 1395, 1394
798, 1005, 1006, 1071, 1070, 1330, 1331, 1396, 1395
799, 1006, 1007, 1072, 1071, 1331, 1332, 1397, 1396
800, 1007, 1008, 1073, 1072, 1332, 1333, 1398, 1397
801, 1008, 1009, 1074, 1073, 1333, 1334, 1399, 1398
802, 1009, 1010, 1075, 1074, 1334, 1335, 1400, 1399
803, 1010, 1011, 1076, 1075, 1335, 1336, 1401, 1400
804, 1011, 1012, 1077, 1076, 1336, 1337, 1402, 1401
805, 1012, 1013, 1078, 1077, 1337, 1338, 1403, 1402
806, 1013, 1014, 1079, 1078, 1338, 1339, 1404, 1403
807, 1014, 1015, 1080, 1079, 1339, 1340, 1405, 1404
808, 1015, 1016, 1081, 1080, 1340, 1341, 1406, 1405
809, 1016, 1017, 1082, 1081, 1341, 1342, 1407, 1406
810, 1017, 1018, 1083, 1082, 1342, 1343, 1408, 1407
811, 1018, 1019, 1084, 1083, 1343, 1344, 1409, 1408
812, 1019, 1020, 1085, 1084, 1344, 1345, 1410, 1409
813, 1020, 1021, 1086, 1085, 1345, 1346, 1411, 1410
814, 1021, 1022, 1087, 1086, 1346, 1347, 1412, 1411
815, 1022, 1023, 1088, 1087, 1347, 1348, 1413, 1412
816, 1023, 1024, 1089, 1088, 1348, 1349, 1414, 1413
817, 1024, 1025, 1090, 1089, 1349, 1350, 1415, 1414
818, 1025, 1026, 1091, 1090, 1350, 1351, 1416, 1415
819, 1026, 1027, 1092, 1091, 1351, 1352, 1417, 1416
820, 1027, 1028, 1093, 1092, 1352, 1353, 1418, 1417
821, 1028, 1029, 1094, 1093, 1353, 1354, 1419, 1418
822, 1029, 1030, 1095, 1094, 1354, 1355, 1420, 1419
823, 1030, 1031, 1096, 1095, 1355, 1356, 1421, 1420
824, 1031, 1032, 1097, 1096, 1356, 1357, 1422, 1421
825, 1032, 1033, 1098, 1097, 1357, 1358, 1423, 1422
826, 1033, 1034, 1099, 1098, 1358, 1359, 1424, 1423
827, 1034, 1035, 1100, 1099, 1359, 1360, 1425, 1424
828, 1035, 1036, 1101, 1100, 1360, 1361, 1426, 1425
829, 1036, 1037, 1102, 1101, 1361, 1362, 1427, 1426
830, 1037, 1038, 1103, 1102, 1362, 1363, 1428, 1427
831, 1038, 1039, 1104, 1103, 1363, 1364, 1429, 1428
832, 1039, 1040, 1105, 1104, 1364, 1365, 1430, 1429
833, 1041, 1042, 1107, 1106, 1366, 1367, 1432, 1431
834, 1042, 1043, 1108, 1107, 1367, 1368, 1433, 1432
835, 1043, 1044, 1109, 1108, 1368, 1369, 1434, 1433
836, 1044, 1045, 1110, 1109, 1369, 1370, 1435, 1434
837, 1045, 1046, 1111, 1110, 1370, 1371, 1436, 1435
838, 1046, 1047, 1112, 1111, 1371, 1372, 1437, 1436
839, 1047, 1048, 1113, 1112, 1372, 1373, 1438, 1437
840, 1048, 1049, 1114, 1113, 1373, 1374, 1439, 1438
841, 1049, 1050, 1115, 1114, 1374, 1375, 1440, 1439
842, 1050, 1051, 1116, 1115, 1375, 1376, 1441, 1440
843, 1051, 1052, 1117, 1116, 1376, 1377, 1442, 1441
844, 1052, 1053, 1118, 1117, 1377, 1378, 1443, 1442
845, 1053, 1054, 1119, 1118, 1378, 1379, 1444, 1443
846, 1054, 1055, 1120, 1119, 1379, 1380, 1445, 1444
847, 1055, 1056, 1121, 1120, 1380, 1381, 1446, 1445
848, 1056, 1057, 1122, 1121, 1381, 1382, 1447, 1446
849, 1057, 1058, 1123, 1122, 1382, 1383, 1448, 1447
850, 1058, 1059, 1124, 1123, 1383, 1384, 1449, 1448
851, 1059, 1060, 1125, 1124, 1384, 1385, 1450, 1449
852, 1060, 1061, 1126, 1125, 1385, 1386, 1451, 1450
853, 1061, 1062, 1127, 1126, 1386, 1387, 1452, 1451
854, 1062, 1063, 1128, 1127, 1387, 1388, 1453, 1452
855, 1063, 1064, 1129, 1128, 1388, 1389, 1454, 1453
856, 1064, 1065, 1130, 1129, 1389, 1390, 1455, 1454
857, 1065, 1066, 1131, 1130, 1390, 1391, 1456, 1455
858, 1066, 1067, 1132, 1131, 1391, 1392, 1457, 1456
859, 1067, 1068, 1133, 1132, 1392, 1393, 1458, 1457
860, 1068, 1069, 1134, 1133, 1393, 1394, 1459, 1458
861, 1069, 1070, 1135, 1134, 1394, 1395, 1460, 1459
862, 1070, 1071, 1136, 1135, 1395, 1396, 1461, 1460
863, 1071, 1072, 1137, 1136, 1396, 1397, 1462, 1461
864, 1072, 1073, 1138, 1137, 1397, 1398, 1463, 1462
865, 1073, 1074, 1139, 1138, 1398, 1399, 1464, 1463
866, 1074, 1075, 1140, 1139, 1399, 1400, 1465, 1464
867, 1075, 1076, 1141, 1140, 1400, 1401, 1466, 1465
868, 1076, 1077, 1142, 1141, 1401, 1402, 1467, 1466
869, 1077, 1078, 1143, 1142, 1402, 1403, 1468, 1467
870, 1078, 1079, 1144, 1143, 1403, 1404, 1469, 1468
871, 1079, 1080, 1145, 1144, 1404, 1405, 1470, 1469
872, 1080, 1081, 1146, 1145, 1405, 1406, 1471, 1470
873, 1081, 1082, 1147, 1146, 1406, 1407, 1472, 1471
874, 1082, 1083, 1148, 1147, 1407, 1408, 1473, 1472
875, 1083, 1084, 1149, 1148, 1408, 1409, 1474, 1473
876, 1084, 1085, 1150, 1149, 1409, 1410, 1475, 1474
877, 1085, 1086, 1151, 1150, 1410, 1411, 1476, 1475
878, 1086, 1087, 1152, 1151, 1411, 1412, 1477, 1476
879, 1087, 1088, 1153, 1152, 1412, 1413, 1478, 1477
880, 1088, 1089, 1154, 1153, 1413, 1414, 1479, 1478
881, 1089, 1090, 1155, 1154, 1414, 1415, 1480, 1479
882, 1090, 1091, 1156, 1155, 1415, 1416, 1481, 1480
883, 1091, 1092, 1157, 1156, 1416, 1417, 1482, 1481
884, 1092, 1093, 1158, 1157, 1417, 1418, 1483, 1482
885, 1093, 1094, 1159, 1158, 1418, 1419, 1484, 1483
886, 1094, 1095, 1160, 1159, 1419, 1420, 1485, 1484
887, 1095, 1096, 1161, 1160, 1420, 1421, 1486, 1485
888, 1096, 1097, 1162, 1161, 1421, 1422, 1487, 1486
889, 1097, 1098, 1163, 1162, 1422, 1423, 1488, 1487
890, 1098, 1099, 1164, 1163, 1423, 1424, 1489, 1488
891, 1099, 1100, 1165, 1164, 1424, 1425, 1490, 1489
892, 1100, 1101, 1166, 1165, 1425, 1426, 1491, 1490
893, 1101, 1102, 1167, 1166, 1426, 1427, 1492, 1491
894, 1102, 1103, 1168, 1167, 1427, 1428, 1493, 1492
895, 1103, 1104, 1169, 1168, 1428, 1429, 1494, 1493
896, 1104, 1105, 1170, 1169, 1429, 1430, 1495, 1494
897, 1106, 1107, 1172, 1171, 1431, 1432, 1497, 1496
898, 1107, 1108, 1173, 1172, 1432, 1433, 1498, 1497
899, 1108, 1109, 1174, 1173, 1433, 1434, 1499, 1498
900, 1109, 1110, 1175, 1174, 1434, 1435, 1500, 1499
901, 1110, 1111, 1176, 1175, 1435, 1436, 1501, 1500
902, 1111, 1112, 1177, 1176, 1436, 1437, 1502, 1501
903, 1112, 1113, 1178, 1177, 1437, 1438, 1503, 1502
904, 1113, 1114, 1179, 1178, 1438, 1439, 1504, 1503
905, 1114, 1115, 1180, 1179, 1439, 1440, 1505, 1504
906, 1115, 1116, 1181, 1180, 1440, 1441, 1506, 1505
907, 1116, 1117, 1182, 1181, 1441, 1442, 1507, 1506
908, 1117, 1118, 1183, 1182, 1442, 1443, 1508, 1507
909, 1118, 1119, 1184, 1183, 1443, 1444, 1509, 1508
910, 1119, 1120, 1185, 1184, 1444, 1445, 1510, 1509
911, 1120, 1121, 1186, 1185, 1445, 1446, 1511, 1510
912, 1121, 1122, 1187, 1186, 1446, 1447, 1512, 1511
913, 1122, 1123, 1188, 1187, 1447, 1448, 1513, 1512
914, 1123, 1124, 1189, 1188, 1448, 1449, 1514, 1513
915, 1124, 1125, 1190, 1189, 1449, 1450, 1515, 1514
916, 1125, 1126, 1191, 1190, 1450, 1451, 1516, 1515
917, 1126, 1127, 1192, 1191, 1451, 1452, 1517, 1516
918, 1127, 1128, 1193, 1192, 1452, 1453, 1518, 1517
919, 1128, 1129, 1194, 1193, 1453, 1454, 1519, 1518
920, 1129, 1130, 1195, 1194, 1454, 1455, 1520, 1519
921, 1130, 1131, 1196, 1195, 1455, 1456, 1521, 1520
922, 1131, 1132, 1197, 1196, 1456, 1457, 1522, 1521
923, 1132, 1133, 1198, 1197, 1457, 1458, 1523, 1522
924, 1133, 1134, 1199, 1198, 1458, 1459, 1524, 1523
925, 1134, 1135, 1200, 1199, 1459, 1460, 1525, 1524
926, 1135, 1136, 1201, 1200, 1460, 1461, 1526, 1525
927, 1136, 1137, 1202, 1201, 1461, 1462, 1527, 1526
928, 1137, 1138, 1203, 1202, 1462, 1463, 1528, 1527
929, 1138, 1139, 1204, 1203, 1463, 1464, 1529, 1528
930, 1139, 1140, 1205, 1204, 1464, 1465, 1530, 1529
931, 1140, 1141, 1206, 1205, 1465, 1466, 1531, 1530
932, 1141, 1142, 1207, 1206, 1466, 1467, 1532, 1531
933, 1142, 1143, 1208, 1207, 1467, 1468, 1533, 1532
934, 1143, 1144, 1209, 1208, 1468, 1469, 1534, 1533
935, 1144, 1145, 1210, 1209, 1469, 1470, 1535, 1534
936, 1145, 1146, 1211, 1210, 1470, 1471, 1536, 1535
937, 1146, 1147, 1212, 1211, 1471, 1472, 1537, 1536
938, 1147, 1148, 1213, 1212, 1472, 1473, 1538, 1537
939, 1148, 1149, 1214, 1213, 1473, 1474, 1539, 1538
940, 1149, 1150, 1215, 1214, 1474, 1475, 1540, 1539
941, 1150, 1151, 1216, 1215, 1475, 1476, 1541, 1540
942, 1151, 1152, 1217, 1216, 1476, 1477, 1542, 1541
943, 1152, 1153, 1218, 1217, 1477, 1478, 1543, 1542
944, 1153, 1154, 1219, 1218, 1478, 1479, 1544, 1543
945, 1154, 1155, 1220, 1219, 1479, 1480, 1545, 1544
946, 1155, 1156, 1221, 1220, 1480, 1481, 1546, 1545
947, 1156, 1157, 1222, 1221, 1481, 1482, 1547, 1546
948, 1157, 1158, 1223, 1222, 1482, 1483, 1548, 1547
949, 1158, 1159, 1224, 1223, 1483, 1484, 1549, 1548
950, 1159, 1160, 1225, 1224, 1484, 1485, 1550, 1549
951, 1160, 1161, 1226, 1225, 1485, 1486, 1551, 1550
952, 1161, 1162, 1227, 1226, 1486, 1487, 1552, 1551
953, 1162, 1163, 1228, 1227, 1487, 1488, 1553, 1552
954, 1163, 1164, 1229, 1228, 1488, 1489, 1554, 1553
955, 1164, 1165, 1230, 1229, 1489, 1490, 1555, 1554
956, 1165, 1166, 1231, 1230, 1490, 1491, 1556, 1555
957, 1166, 1167, 1232, 1231, 1491, 1492, 1557, 1556
958, 1167, 1168, 1233, 1232, 1492, 1493, 1558, 1557
959, 1168, 1169, 1234, 1233, 1493, 1494, 1559, 1558
960, 1169, 1170, 1235, 1234, 1494, 1495, 1560, 1559
961, 1171, 1172, 1237, 1236, 1496, 1497, 1562, 1561
962, 1172, 1173, 1238, 1237, 1497, 1498, 1563, 1562
963, 1173, 1174, 1239, 1238, 1498, 1499, 1564, 1563
964, 1174, 1175, 1240, 1239, 1499, 1500, 1565, 1564
965, 1175, 1176, 1241, 1240, 1500, 1501, 1566, 1565
966, 1176, 1177, 1242, 1241, 1501, 1502, 1567, 1566
967, 1177, 1178, 1243, 1242, 1502, 1503, 1568, 1567
968, 1178, 1179, 1244, 1243, 1503, 1504, 1569, 1568
969, 1179, 1180, 1245, 1244, 1504, 1505, 1570, 1569
970, 1180, 1181, 1246, 1245, 1505, 1506, 1571, 1570
971, 1181, 1182, 1247, 1246, 1506, 1507, 1572, 1571
972, 1182, 1183, 1248, 1247, 1507, 1508, 1573, 1572
973, 1183, 1184, 1249, 1248, 1508, 1509, 1574, 1573
974, 1184, 1185, 1250, 1249, 1509, 1510, 1575, 1574
975, 1185, 1186, 1251, 1250, 1510, 1511, 1576, 1575
976, 1186, 1187, 1252, 1251, 1511, 1512, 1577, 1576
977, 1187, 1188, 1253, 1252, 1512, 1513, 1578, 1577
978, 1188, 1189, 1254, 1253, 1513, 1514, 1579, 1578
979, 1189, 1190, 1255, 1254, 1514, 1515, 1580, 1579
980, 1190, 1191, 1256, 1255, 1515, 1516, 1581, 1580
981, 1191, 1192, 1257, 1256, 1516, 1517, 1582, 1581
982, 1192, 1193, 1258, 1257, 1517, 1518, 1583, 1582
983, 1193, 1194, 1259, 1258, 1518, 1519, 1584, 1583
984, 1194, 1195, 1260, 1259, 1519, 1520, 1585, 1584
985, 1195, 1196, 1261, 1260, 1520, 1521, 1586, 1585
986, 1196, 1197, 1262, 1261, 1521, 1522, 1587, 1586
987, 1197, 1198, 1263, 1262, 1522, 1523, 1588, 1587
988, 1198, 1199, 1264, 1263, 1523, 1524, 1589, 1588
989, 1199, 1200, 1265, 1264, 1524, 1525, 1590, 1589
990, 1200, 1201, 1266, 1265, 1525, 1526, 1591, 1590
991, 1201, 1202, 1267, 1266, 1526, 1527, 1592, 1591
992, 1202, 1203, 1268, 1267, 1527, 1528, 1593, 1592
993, 1203, 1204, 1269, 1268, 1528, 1529, 1594, 1593
994, 1204, 1205, 1270, 1269, 1529, 1530, 1595, 1594
995, 1205, 1206, 1271, 1270, 1530, 1531, 1596, 1595
996, 1206, 1207, 1272, 1271, 1531, 1532, 1597, 1596
997, 1207, 1208, 1273, 1272, 1532, 1533, 1598, 1597
998, 1208, 1209, 1274, 1273, 1533, 1534, 1599, 1598
999, 1209, 1210, 1275, 1274, 1534, 1535, 1600, 1599
1000, 1210, 1211, 1276, 1275, 1535, 1536, 1601, 1600
1001, 1211, 1212, 1277, 1276, 1536, 1537, 1602, 1601
1002, 1212, 1213, 1278, 1277, 1537, 1538, 1603, 1602
1003, 1213, 1214, 1279, 1278, 1538, 1539, 1604, 1603
1004, 1214, 1215, 1280, 1279, 1539, 1540, 1605, 1604
1005, 1215, 1216, 1281, 1280, 1540, 1541, 1606, 1605
1006, 1216, 1217, 1282, 1281, 1541, 1542, 1607, 1606
1007, 1217, 1218, 1283, 1282, 1542, 1543, 1608, 1607
1008, 1218, 1219, 1284, 1283, 1543, 1544, 1609, 1608
1009, 1219, 1220, 1285, 1284, 1544, 1545, 1610, 1609
1010, 1220, 1221, 1286, 1285, 1545, 1546, 1611, 1610
1011, 1221, 1222, 1287, 1286, 1546, 1547, 1612, 1611
1012, 1222, 1223, 1288, 1287, 1547, 1548, 1613, 1612
1013, 1223, 1224, 1289, 1288, 1548, 1549, 1614, 1613
1014, 1224, 1225, 1290, 1289, 1549, 1550, 1615, 1614
1015, 1225, 1226, 1291, 1290, 1550, 1551, 1616, 1615
1016, 1226, 1227, 1292, 1291, 1551, 1552, 1617, 1616
1017, 1227, 1228, 1293, 1292, 1552, 1553, 1618, 1617
1018, 1228, 1229, 1294, 1293, 1553, 1554, 1619, 1618
1019, 1229, 1230, 1295, 1294, 1554, 1555, 1620, 1619
1020, 1230, 1231, 1296, 1295, 1555, 1556, 1621, 1620
1021, 1231, 1232, 1297, 1296, 1556, 1557, 1622, 1621
1022, 1232, 1233, 1298, 1297, 1557, 1558, 1623, 1622
1023, 1233, 1234, 1299, 1298, 1558, 1559, 1624, 1623
1024, 1234, 1235, 1300, 1299, 1559, 1560, 1625, 1624
1025, 1301, 1302, 1367, 1366, 1626, 1627, 1692, 1691
1026, 1302, 1303, 1368, 1367, 1627, 1628, 1693, 1692
1027, 1303, 1304, 1369, 1368, 1628, 1629, 1694, 1693
1028, 1304, 1305, 1370, 1369, 1629, 1630, 1695, 1694
1029, 1305, 1306, 1371, 1370, 1630, 1631, 1696, 1695
1030, 1306, 1307, 1372, 1371, 1631, 1632, 1697, 1696
1031, 1307, 1308, 1373, 1372, 1632, 1633, 1698, 1697
1032, 1308, 1309, 1374, 1373, 1633, 1634, 1699, 1698
1033, 1309, 1310, 1375, 1374, 1634, 1635, 1700, 1699
1034, 1310, 1311, 1376, 1375, 1635, 1636, 1701, 1700
1035, 1311, 1312, 1377, 1376, 1636, 1637, 1702, 1701
1036, 1312, 1313, 1378, 1377, 1637, 1638, 1703, 1702
1037, 1313, 1314, 1379, 1378, 1638, 1639, 1704, 1703
1038, 1314, 1315, 1380, 1379, 1639, 1640, 1705, 1704
1039, 1315, 1316, 1381, 1380, 1640, 1641, 1706, 1705
1040, 1316, 1317, 1382, 1381, 1641, 1642, 1707, 1706
1041, 1317, 1318, 1383, 1382, 1642, 1643, 1708, 1707
1042, 1318, 1319, 1384, 1383, 1643, 1644, 1709, 1708
1043, 1319, 1320, 1385, 1384, 1644, 1645, 1710, 1709
1044, 1320, 1321, 1386, 1385, 1645, 1646, 1711, 1710
1045, 1321, 1322, 1387, 1386, 1646, 1647, 1712, 1711
1046, 1322, 1323, 1388, 1387, 1647, 1648, 1713, 1712
1047, 1323, 1324, 1389, 1388, 1648, 1649, 1714, 1713
1048, 1324, 1325, 1390, 1389, 1649, 1650, 1715, 1714
1049, 1325, 1326, 1391, 1390, 1650, 1651, 1716, 1715
1050, 1326, 1327, 1392, 1391, 1651, 1652, 1717, 1716
1051, 1327, 1328, 1393, 1392, 1652, 1653, 1718, 1717
1052, 1328, 1329, 1394, 1393, 1653, 1654, 1719, 1718
1053, 1329, 1330, 1395, 1394, 1654, 1655, 1720, 1719
1054, 1330, 1331, 1396, 1395, 1655, 1656, 1721, 1720
1055, 1331, 1332, 1397, 1396, 1656, 1657, 1722, 1721
1056, 1332, 1333, 1398, 1397, 1657, 1658, 1723, 1722
1057, 1333, 1334, 1399, 1398, 1658, 1659, 1724, 1723
1058, 1334, 1335, 1400, 1399, 1659, 1660, 1725, 1724
1059, 1335, 1336, 1401, 1400, 1660, 1661, 1726, 1725
1060, 1336, 1337, 1402, 1401, 1661, 1662, 1727, 1726
1061, 1337, 1338, 1403, 1402, 1662, 1663, 1728, 1727
1062, 1338, 1339, 1404, 1403, 1663, 1664, 1729, 1728
1063, 1339, 1340, 1405, 1404, 1664, 1665, 1730, 1729
1064, 1340, 1341, 1406, 1405, 1665, 1666, 1731, 1730
1065, 1341, 1342, 1407, 1406, 1666, 1667, 1732, 1731
1066, 1342, 1343, 1408, 1407, 1667, 1668, 1733, 1732
1067, 1343, 1344, 1409, 1408, 1668, 1669, 1734, 1733
1068, 1344, 1345, 1410, 1409, 1669, 1670, 1735, 1734
1069, 1345, 1346, 1411, 1410, 1670, 1671, 1736, 1735
1070, 1346, 1347, 1412, 1411, 1671, 1672, 1737, 1736
1071, 1347, 1348, 1413, 1412, 1672, 1673, 1738, 1737
1072, 1348, 1349, 1414, 1413, 1673, 1674, 1739, 1738
1073, 1349, 1350, 1415, 1414, 1674, 1675, 1740, 1739
1074, 1350, 1351, 1416, 1415, 1675, 1676, 1741, 1740
1075, 1351, 1352, 1417, 1416, 1676, 1677, 1742, 1741
1076, 1352, 1353, 1418, 1417, 1677, 1678, 1743, 1742
1077, 1353, 1354, 1419, 1418, 1678, 1679, 1744, 1743
1078, 1354, 1355, 1420, 1419, 1679, 1680, 1745, 1744
1079, 1355, 1356, 1421, 1420, 1680, 1681, 1746, 1745
1080, 1356, 1357, 1422, 1421, 1681, 1682, 1747, 1746
1081, 1357, 1358, 1423, 1422, 1682, 1683, 1748, 1747
1082, 1358, 1359, 1424, 1423, 1683, 1684, 1749, 1748
1083, 1359, 1360, 1425, 1424, 1684, 1685, 1750, 1749
1084, 1360, 1361, 1426, 1425, 1685, 1686, 1751, 1750
1085, 1361, 1362, 1427, 1426, 1686, 1687, 1752, 1751
1086, 1362, 1363, 1428, 1427, 1687, 1688, 1753, 1752
1087, 1363, 1364, 1429, 1428, 1688, 1689, 1754, 1753
1088, 1364, 1365, 1430, 1429, 1689, 1690, 1755, 1754
1089, 1366, 1367, 1432, 1431, 1691, 1692, 1757, 1756
1090, 1367, 1368, 1433, 1432, 1692, 1693, 1758, 1757
1091, 1368, 1369, 1434, 1433, 1693, 1694, 1759, 1758
1092, 1369, 1370, 1435, 1434, 1694, 1695, 1760, 1759
1093, 1370, 1371, 1436, 1435, 1695, 1696, 1761, 1760
1094, 1371, 1372, 1437, 1436, 1696, 1697, 1762, 1761
1095, 1372, 1373, 1438, 1437, 1697, 1698, 1763, 1762
1096, 1373, 1374, 1439, 1438, 1698, 1699, 1764, 1763
1097, 1374, 1375, 1440, 1439, 1699, 1700, 1765, 1764
1098, 1375, 1376, 1441, 1440, 1700, 1701, 1766, 1765
1099, 1376, 1377, 1442, 1441, 1701, 1702, 1767, 1766
1100, 1377, 1378, 1443, 1442, 1702, 1703, 1768, 1767
1101, 1378, 1379, 1444, 1443, 1703, 1704, 1769, 1768
1102, 1379, 1380, 1445, 1444, 1704, 1705, 1770, 1769
1103, 1380, 1381, 1446, 1445, 1705, 1706, 1771, 1770
1104, 1381, 1382, 1447, 1446, 1706, 1707, 1772, 1771
1105, 1382, 1383, 1448, 1447, 1707, 1708, 1773, 1772
1106, 1383, 1384, 1449, 1448, 1708, 1709, 1774, 1773
1107, 1384, 1385, 1450, 1449, 1709, 1710, 1775, 1774
1108, 1385, 1386, 1451, 1450, 1710, 1711, 1776, 1775
1109, 1386, 1387, 1452, 1451, 1711, 1712, 1777, 1776
1110, 1387, 1388, 1453, 1452, 1712, 1713, 1778, 1777
1111, 1388, 1389, 1454, 1453, 1713, 1714, 1779, 1778
1112, 1389, 1390, 1455, 1454, 1714, 1715, 1780, 1779
1113, 1390, 1391, 1456, 1455, 1715, 1716, 1781, 1780
1114, 1391, 1392, 1457, 1456, 1716, 1717, 1782, 1781
1115, 1392, 1393, 1458, 1457, 1717, 1718, 1783, 1782
1116, 1393, 1394, 1459, 1458, 1718, 1719, 1784, 1783
1117, 1394, 1395, 1460, 1459, 1719, 1720, 1785, 1784
1118, 1395, 1396, 1461, 1460, 1720, 1721, 1786, 1785
1119, 1396, 1397, 1462, 1461, 1721, 1722, 1787, 1786
1120, 1397, 1398, 1463, 1462, 1722, 1723, 1788, 1787
1121, 1398, 1399, 1464, 1463, 1723, 1724, 1789, 1788
1122, 1399, 1400, 1465, 1464, 1724, 1725, 1790, 1789
1123, 1400, 1401, 1466, 1465, 1725, 1726, 1791, 1790
1124, 1401, 1402, 1467, 1466, 1726, 1727, 1792, 1791
1125, 1402, 1403, 1468, 1467, 1727, 1728, 1793, 1792
1126, 1403, 1404, 1469, 1468, 1728, 1729, 1794, 1793
1127, 1404, 1405, 1470, 1469, 1729, 1730, 1795, 1794
1128, 1405, 1406, 1471, 1470, 1730, 1731, 1796, 1795
1129, 1406, 1407, 1472, 1471, 1731, 1732, 1797, 1796
1130, 1407, 1408, 1473, 1472, 1732, 1733, 1798, 1797
1131, 1408, 1409, 1474, 1473, 1733, 1734, 1799, 1798
1132, 1409, 1410, 1475, 1474, 1734, 1735, 1800, 1799
1133, 1410, 1411, 1476, 1475, 1735, 1736, 1801, 1800
1134, 1411, 1412, 1477, 1476, 1736, 1737, 1802, 1801
1135, 1412, 1413, 1478, 1477, 1737, 1738, 1803, 1802
1136, 1413, 1414, 1479, 1478, 1738, 1739, 1804, 1803
1137, 1414, 1415, 1480, 1479, 1739, 1740, 1805, 1804
1138, 1415, 1416, 1481, 1480, 1740, 1741, 1806, 1805
1139, 1416, 1417, 1482, 1481, 1741, 1742, 1807, 1806
1140, 1417, 1418, 1483, 1482, 1742, 1743, 1808, 1807
1141, 1418, 1419, 1484, 1483, 1743, 1744, 1809, 1808
1142, 1419, 1420, 1485, 1484, 1744, 1745, 1810, 1809
1143, 1420, 1421, 1486, 1485, 1745, 1746, 1811, 1810
1144, 1421, 1422, 1487, 1486, 1746, 1747, 1812, 1811
1145, 1422, 1423, 1488, 1487, 1747, 1748, 1813, 1812
1146, 1423, 1424, 1489, 1488, 1748, 1749, 1814, 1813
1147, 1424, 1425, 1490, 1489, 1749, 1750, 1815, 1814
1148, 1425, 1426, 1491, 1490, 1750, 1751, 1816, 1815
1149, 1426, 1427, 1492, 1491, 1751, 1752, 1817, 1816
1150, 1427, 1428, 1493, 1492, 1752, 1753, 1818, 1817
1151, 1428, 1429, 1494, 1493, 1753, 1754, 1819, 1818
1152, 1429, 1430, 1495, 1494, 1754, 1755, 1820, 1819
1153, 1431, 1432, 1497, 1496, 1756, 1757, 1822, 1821
1154, 1432, 1433, 1498, 1497, 1757, 1758, 1823, 1822
1155, 1433, 1434, 1499, 1498, 1758, 1759, 1824, 1823
1156, 1434, 1435, 1500, 1499, 1759, 1760, 1825, 1824
1157, 1435, 1436, 1501, 1500, 1760, 1761, 1826, 1825
1158, 1436, 1437, 1502, 1501, 1761, 1762, 1827, 1826
1159, 1437, 1438, 1503, 1502, 1762, 1763, 1828, 1827
1160, 1438, 1439, 1504, 1503, 1763, 1764, 1829, 1828
1161, 1439, 1440, 1505, 1504, 1764, 1765, 1830, 1829
1162, 1440, 1441, 1506, 1505, 1765, 1766, 1831, 1830
1163, 1441, 1442, 1507, 1506, 1766, 1767, 1832, 1831
1164, 1442, 1443, 1508, 1507, 1767, 1768, 1833, 1832
1165, 1443, 1444, 1509, 1508, 1768, 1769, 1834, 1833
1166, 1444, 1445, 1510, 1509, 1769, 1770, 1835, 1834
1167, 1445, 1446, 1511, 1510, 1770, 1771, 1836, 1835
1168, 1446, 1447, 1512, 1511, 1771, 1772, 1837, 1836
1169, 1447, 1448, 1513, 1512, 1772, 1773, 1838, 1837
1170, 1448, 1449, 1514, 1513, 1773, 1774, 1839, 1838
1171, 1449, 1450, 1515, 1514, 1774, 1775, 1840, 1839
1172, 1450, 1451, 1516, 1515, 1775, 1776, 1841, 1840
1173, 1451, 1452, 1517, 1516, 1776, 1777, 1842, 1841
1174, 1452, 1453, 1518, 1517, 1777, 1778, 1843, 1842
1175, 1453, 1454, 1519, 1518, 1778, 1779, 1844, 1843
1176, 1454, 1455, 1520, 1519, 1779, 1780, 1845, 1844
1177, 1455, 1456, 1521, 1520, 1780, 1781, 1846, 1845
1178, 1456, 1457, 1522, 1521, 1781, 1782, 1847, 1846
1179, 1457, 1458, 1523, 1522, 1782, 1783, 1848, 1847
1180, 1458, 1459, 1524, 1523, 1783, 1784, 1849, 1848
1181, 1459, 1460, 1525, 1524, 1784, 1785, 1850, 1849
1182, 1460, 1461, 1526, 1525, 1785, 1786, 1851, 1850
1183, 1461, 1462, 1527, 1526, 1786, 1787, 1852, 1851
1184, 1462, 1463, 1528, 1527, 1787, 1788, 1853, 1852
1185, 1463, 1464, 1529, 1528, 1788, 1789, 1854, 1853
1186, 1464, 1465, 1530, 1529, 1789, 1790, 1855, 1854
1187, 1465, 1466, 1531, 1530, 1790, 1791, 1856, 1855
1188, 1466, 1467, 1532, 1531, 1791, 1792, 1857, 1856
1189, 1467, 1468, 1533, 1532, 1792, 1793, 1858, 1857
1190, 1468, 1469, 1534, 1533, 1793, 1794, 1859, 1858
1191, 1469, 1470, 1535, 1534, 1794, 1795, 1860, 1859
1192, 1470, 1471, 1536, 1535, 1795, 1796, 1861, 1860
1193, 1471, 1472, 1537, 1536, 1796, 1797, 1862, 1861
1194, 1472, 1473, 1538, 1537, 1797, 1798, 1863, 1862
1195, 1473, 1474, 1539, 1538, 1798, 1799, 1864, 1863
1196, 1474, 1475, 1540, 1539, 1799, 1800, 1865, 1864
1197, 1475, 1476, 1541, 1540, 1800, 1801, 1866, 1865
1198, 1476, 1477, 1542, 1541, 1801, 1802, 1867, 1866
1199, 1477, 1478, 1543, 1542, 1802, 1803, 1868, 1867
1200, 1478, 1479, 1544, 1543, 1803, 1804, 1869, 1868
1201, 1479, 1480, 1545, 1544, 1804, 1805, 1870, 1869
1202, 1480, 1481, 1546, 1545, 1805, 1806, 1871, 1870
1203, 1481, 1482, 1547, 1546, 1806, 1807, 1872, 1871
1204, 1482, 1483, 1548, 1547, 1807, 1808, 1873, 1872
1205, 1483, 1484, 1549, 1548, 1808, 1809, 1874, 1873
1206, 1484, 1485, 1550, 1549, 1809, 1810, 1875, 1874
1207, 1485, 1486, 1551, 1550, 1810, 1811, 1876, 1875
1208, 1486, 1487, 1552, 1551, 1811, 1812, 1877, 1876
1209, 1487, 1488, 1553, 1552, 1812, 1813, 1878, 1877
1210, 1488, 1489, 1554, 1553, 1813, 1814, 1879, 1878
1211, 1489, 1490, 1555, 1554, 1814, 1815, 1880, 1879
1212, 1490, 1491, 1556, 1555, 1815, 1816, 1881, 1880
1213, 1491, 1492, 1557, 1556, 1816, 1817, 1882, 1881
1214, 1492, 1493, 1558, 1557, 1817, 1818, 1883, 1882
1215, 1493, 1494, 1559, 1558, 1818, 1819, 1884, 1883
1216, 1494, 1495, 1560, 1559, 1819, 1820, 1885, 1884
1217, 1496, 1497, 1562, 1561, 1821, 1822, 1887, 1886
1218, 1497, 1498, 1563, 1562, 1822, 1823, 1888, 1887
1219, 1498, 1499, 1564, 1563, 1823, 1824, 1889, 1888
1220, 1499, 1500, 1565, 1564, 1824, 1825, 1890, 1889
1221, 1500, 1501, 1566, 1565, 1825, 1826, 1891, 1890
1222, 1501, 1502, 1567, 1566, 1826, 1827, 1892, 1891
1223, 1502, 1503, 1568, 1567, 1827, 1828, 1893, 1892
1224, 1503, 1504, 1569, 1568, 1828, 1829, 1894, 1893
1225, 1504, 1505, 1570, 1569, 1829, 1830, 1895, 1894
1226, 1505, 1506, 1571, 1570, 1830, 1831, 1896, 1895
1227, 1506, 1507, 1572, 1571, 1831, 1832, 1897, 1896
1228, 1507, 1508, 1573, 1572, 1832, 1833, 1898, 1897
1229, 1508, 1509, 1574, 1573, 1833, 1834, 1899, 1898
1230, 1509, 1510, 1575, 1574, 1834, 1835, 1900, 1899
1231, 1510, 1511, 1576, 1575, 1835, 1836, 1901, 1900
1232, 1511, 1512, 1577, 1576, 1836, 1837, 1902, 1901
1233, 1512, 1513, 1578, 1577, 1837, 1838, 1903, 1902
1234, 1513, 1514, 1579, 1578, 1838, 1839, 1904, 1903
1235, 1514, 1515, 1580, 1579, 1839, 1840, 1905, 1904
1236, 1515, 1516, 1581, 1580, 1840, 1841, 1906, 1905
1237, 1516, 1517, 1582, 1581, 1841, 1842, 1907, 1906
1238, 1517, 1518, 1583, 1582, 1842, 1843, 1908, 1907
1239, 1518, 1519, 1584, 1583, 1843, 1844, 1909, 1908
1240, 1519, 1520, 1585, 1584, 1844, 1845, 1910, 1909
1241, 1520, 1521, 1586, 1585, 1845, 1846, 1911, 1910
1242, 1521, 1522, 1587, 1586, 1846, 1847, 1912, 1911
1243, 1522, 1523, 1588, 1587, 1847, 1848, 1913, 1912
1244, 1523, 1524, 1589, 1588, 1848, 1849, 1914, 1913
1245, 1524, 1525, 1590, 1589, 1849, 1850, 1915, 1914
1246, 1525, 1526, 1591, 1590, 1850, 1851, 1916, 1915
1247, 1526, 1527, 1592, 1591, 1851, 1852, 1917, 1916
1248, 1527, 1528, 1593, 1592, 1852, 1853, 1918, 1917
1249, 1528, 1529, 1594, 1593, 1853, 1854, 1919, 1918
1250, 1529, 1530, 1595, 1594, 1854, 1855, 1920, 1919
1251, 1530, 1531, 1596, 1595, 1855, 1856, 1921, 1920
1252, 1531, 1532, 1597, 1596, 1856, 1857, 1922, 1921
1253, 1532, 1533, 1598, 1597, 1857, 1858, 1923, 1922
1254, 1533, 1534, 1599, 1598, 1858, 1859, 1924, 1923
1255, 1534, 1535, 1600, 1599, 1859, 1860, 1925, 1924
1256, 1535, 1536, 1601, 1600, 1860, 1861, 1926, 1925
1257, 1536, 1537, 1602, 1601, 1861, 1862, 1927, 1926
1258, 1537, 1538, 1603, 1602, 1862, 1863, 1928, 1927
1259, 1538, 1539, 1604, 1603, 1863, 1864, 1929, 1928
1260, 1539, 1540, 1605, 1604, 1864, 1865, 1930, 1929
1261, 1540, 1541, 1606, 1605, 1865, 1866, 1931, 1930
1262, 1541, 1542, 1607, 1606, 1866, 1867, 1932, 1931
1263, 1542, 1543, 1608, 1607, 1867, 1868, 1933, 1932
1264, 1543, 1544, 1609, 1608, 1868, 1869, 1934, 1933
1265, 1544, 1545, 1610, 1609, 1869, 1870, 1935, 1934
1266, 1545, 1546, 1611, 1610, 1870, 1871, 1936, 1935
1267, 1546, 1547, 1612, 1611, 1871, 1872, 1937, 1936
1268, 1547, 1548, 1613, 1612, 1872, 1873, 1938, 1937
1269, 1548, 1549, 1614, 1613, 1873, 1874, 1939, 1938
1270, 1549, 1550, 1615, 1614, 1874, 1875, 1940, 1939
1271, 1550, 1551, 1616, 1615, 1875, 1876, 1941, 1940
1272, 1551, 1552, 1617, 1616, 1876, 1877, 1942, 1941
1273, 1552, 1553, 1618, 1617, 1877, 1878, 1943, 1942
1274, 1553, 1554, 1619, 1618, 1878, 1879, 1944, 1943
1275, 1554, 1555, 1620, 1619, 1879, 1880, 1945, 1944
1276, 1555, 1556, 1621, 1620, 1880, 1881, 1946, 1945
1277, 1556, 1557, 1622, 1621, 1881, 1882, 1947, 1946
1278, 1557, 1558, 1623, 1622, 1882, 1883, 1948, 1947
1279, 1558, 1559, 1624, 1623, 1883, 1884, 1949, 1948
1280, 1559, 1560, 1625, 1624, 1884, 1885, 1950, 1949
1281, 1626, 1627, 1692, 1691, 1951, 1952, 2017, 2016
1282, 1627, 1628, 1693, 1692, 1952, 1953, 2018, 2017
1283, 1628, 1629, 1694, 1693, 1953, 1954, 2019, 2018
1284, 1629, 1630, 1695, 1694, 1954, 1955, 2020, 2019
1285, 1630, 1631, 1696, 1695, 1955, 1956, 2021, 2020
1286, 1631, 1632, 1697, 1696, 1956, 1957, 2022, 2021
1287, 1632, 1633, 1698, 1697, 1957, 1958, 2023, 2022
1288, 1633, 1634, 1699, 1698, 1958, 1959, 2024, 2023
1289, 1634, 1635, 1700, 1699, 1959, 1960, 2025, 2024
1290, 1635, 1636, 1701, 1700, 1960, 1961, 2026, 2025
1291, 1636, 1637, 1702, 1701, 1961, 1962, 2027, 2026
1292, 1637, 1638, 1703, 1702, 1962, 1963, 2028, 2027
1293, 1638, 1639, 1704, 1703, 1963, 1964, 2029, 2028
1294, 1639, 1640, 1705, 1704, 1964, 1965, 2030, 2029
1295, 1640, 1641, 1706, 1705, 1965, 1966, 2031, 2030
1296, 1641, 1642, 1707, 1706, 1966, 1967, 2032, 2031
1297, 1642, 1643, 1708, 1707, 1967, 1968, 2033, 2032
1298, 1643, 1644, 1709, 1708, 1968, 1969, 2034, 2033
1299, 1644, 1645, 1710, 1709, 1969, 1970, 2035, 2034
1300, 1645, 1646, 1711, 1710, 1970, 1971, 2036, 2035
1301, 1646, 1647, 1712, 1711, 1971, 1972, 2037, 2036
1302, 1647, 1648, 1713, 1712, 1972, 1973, 2038, 2037
1303, 1648, 1649, 1714, 1713, 1973, 1974, 2039, 2038
1304, 1649, 1650, 1715, 1714, 1974, 1975, 2040, 2039
1305, 1650, 1651, 1716, 1715, 1975, 1976, 2041, 2040
1306, 1651, 1652, 1717, 1716, 1976, 1977, 2042, 2041
1307, 1652, 1653, 1718, 1717, 1977, 1978, 2043, 2042
1308, 1653, 1654, 1719, 1718, 1978, 1979, 2044, 2043
1309, 1654, 1655, 1720, 1719, 1979, 1980, 2045, 2044
1310, 1655, 1656, 1721, 1720, 1980, 1981, 2046, 2045
1311, 1656, 1657, 1722, 1721, 1981, 1982, 2047, 2046
1312, 1657, 1658, 1723, 1722, 1982, 1983, 2048, 2047
1313, 1658, 1659, 1724, 1723, 1983, 1984, 2049, 2048
1314, 1659, 1660, 1725, 1724, 1984, 1985, 2050, 2049
1315, 1660, 1661, 1726, 1725, 1985, 1986, 2051, 2050
1316, 1661, 1662, 1727, 1726, 1986, 1987, 2052, 2051
1317, 1662, 1663, 1728, 1727, 1987, 1988, 2053, 2052
1318, 1663, 1664, 1729, 1728, 1988, 1989, 2054, 2053
1319, 1664, 1665, 1730, 1729, 1989, 1990, 2055, 2054
1320, 1665, 1666, 1731, 1730, 1990, 1991, 2056, 2055
1321, 1666, 1667, 1732, 1731, 1991, 1992, 2057, 2056
1322, 1667, 1668, 1733, 1732, 1992, 1993, 2058, 2057
1323, 1668, 1669, 1734, 1733, 1993, 1994, 2059, 2058
1324, 1669, 1670, 1735, 1734, 1994, 1995, 2060, 2059
1325, 1670, 1671, 1736, 1735, 1995, 1996, 2061, 2060
1326, 1671, 1672, 1737, 1736, 1996, 1997, 2062, 2061
1327, 1672, 1673, 1738, 1737, 1997, 1998, 2063, 2062
1328, 1673, 1674, 1739, 1738, 1998, 1999, 2064, 2063
1329, 1674, 1675, 1740, 1739, 1999, 2000, 2065, 2064
1330, 1675, 1676, 1741, 1740, 2000, 2001, 2066, 2065
1331, 1676, 1677, 1742, 1741, 2001, 2002, 2067, 2066
1332, 1677, 1678, 1743, 1742, 2002, 2003, 2068, 2067
1333, 1678, 1679, 1744, 1743, 2003, 2004, 2069, 2068
1334, 1679, 1680, 1745, 1744, 2004, 2005, 2070, 2069
1335, 1680, 1681, 1746, 1745, 2005, 2006, 2071, 2070
1336, 1681, 1682, 1747, 1746, 2006, 2007, 2072, 2071
1337, 1682, 1683, 1748, 1747, 2007, 2008, 2073, 2072
1338, 1683, 1684, 1749, 1748, 2008, 2009, 2074, 2073
1339, 1684, 1685, 1750, 1749, 2009, 2010, 2075, 2074
1340, 1685, 1686, 1751, 1750, 2010, 2011, 2076, 2075
1341, 1686, 1687, 1752, 1751, 2011, 2012, 2077, 2076
1342, 1687, 1688, 1753, 1752, 2012, 2013, 2078, 2077
1343, 1688, 1689, 1754, 1753, 2013, 2014, 2079, 2078
1344, 1689, 1690, 1755, 1754, 2014, 2015, 2080, 2079
1345, 1691, 1692, 1757, 1756, 2016, 2017, 2082, 2081
1346, 1692, 1693, 1758, 1757, 2017, 2018, 2083, 2082
1347, 1693, 1694, 1759, 1758, 2018, 2019, 2084, 2083
1348, 1694, 1695, 1760, 1759, 2019, 2020, 2085, 2084
1349, 1695, 1696, 1761, 1760, 2020, 2021, 2086, 2085
1350, 1696, 1697, 1762, 1761, 2021, 2022, 2087, 2086
1351, 1697, 1698, 1763, 1762, 2022, 2023, 2088, 2087
1352, 1698, 1699, 1764, 1763, 2023, 2024, 2089, 2088
1353, 1699, 1700, 1765, 1764, 2024, 2025, 2090, 2089
1354, 1700, 1701, 1766, 1765, 2025, 2026, 2091, 2090
1355, 1701, 1702, 1767, 1766, 2026, 2027, 2092, 2091
1356, 1702, 1703, 1768, 1767, 2027, 2028, 2093, 2092
1357, 1703, 1704, 1769, 1768, 2028, 2029, 2094, 2093
1358, 1704, 1705, 1770, 1769, 2029, 2030, 2095, 2094
1359, 1705, 1706, 1771, 1770, 2030, 2031, 2096, 2095
1360, 1706, 1707, 1772, 1771, 2031, 2032, 2097, 2096
1361, 1707, 1708, 1773, 1772, 2032, 2033, 2098, 2097
1362, 1708, 1709, 1774, 1773, 2033, 2034, 2099, 2098
1363, 1709, 1710, 1775, 1774, 2034, 2035, 2100, 2099
1364, 1710, 1711, 1776, 1775, 2035, 2036, 2101, 2100
1365, 1711, 1712, 1777, 1776, 2036, 2037, 2102, 2101
1366, 1712, 1713, 1778, 1777, 2037, 2038, 2103, 2102
1367, 1713, 1714, 1779, 1778, 2038, 2039, 2104, 2103
1368, 1714, 1715, 1780, 1779, 2039, 2040, 2105, 2104
1369, 1715, 1716, 1781, 1780, 2040, 2041, 2106, 2105
1370, 1716, 1717, 1782, 1781, 2041, 2042, 2107, 2106
1371, 1717, 1718, 1783, 1782, 2042, 2043, 2108, 2107
1372, 1718, 1719, 1784, 1783, 2043, 2044, 2109, 2108
1373, 1719, 1720, 1785, 1784, 2044, 2045, 2110, 2109
1374, 1720, 1721, 1786, 1785, 2045, 2046, 2111, 2110
1375, 1721, 1722, 1787, 1786, 2046, 2047, 2112, 2111
1376, 1722, 1723, 1788, 1787, 2047, 2048, 2113, 2112
1377, 1723, 1724, 1789, 1788, 2048, 2049, 2114, 2113
1378, 1724, 1725, 1790, 1789, 2049, 2050, 2115, 2114
1379, 1725, 1726, 1791, 1790, 2050, 2051, 2116, 2115
1380, 1726, 1727, 1792, 1791, 2051, 2052, 2117, 2116
1381, 1727, 1728, 1793, 1792, 2052, 2053, 2118, 2117
1382, 1728, 1729, 1794, 1793, 2053, 2054, 2119, 2118
1383, 1729, 1730, 1795, 1794, 2054, 2055, 2120, 2119
1384, 1730, 1731, 1796, 1795, 2055, 2056, 2121, 2120
1385, 1731, 1732, 1797, 1796, 2056, 2057, 2122, 2121
1386, 1732, 1733, 1798, 1797, 2057, 2058, 2123, 2122
1387, 1733, 1734, 1799, 1798, 2058, 2059, 2124, 2123
1388, 1734, 1735, 1800, 1799, 2059, 2060, 2125, 2124
1389, 1735, 1736, 1801, 1800, 2060, 2061, 2126, 2125
1390, 1736, 1737, 1802, 1801, 2061, 2062, 2127, 2126
1391, 1737, 1738, 1803, 1802, 2062, 2063, 2128, 2127
1392, 1738, 1739, 1804, 1803, 2063, 2064, 2129, 2128
1393, 1739, 1740, 1805, 1804, 2064, 2065, 2130, 2129
1394, 1740, 1741, 1806, 1805, 2065, 2066, 2131, 2130
1395, 1741, 1742, 1807, 1806, 2066, 2067, 2132, 2131
1396, 1742, 1743, 1808, 1807, 2067, 2068, 2133, 2132
1397, 1743, 1744, 1809, 1808, 2068, 2069, 2134, 2133
1398, 1744, 1745, 1810, 1809, 2069, 2070, 2135, 2134
1399, 1745, 1746, 1811, 1810, 2070, 2071, 2136, 2135
1400, 1746, 1747, 1812, 1811, 2071, 2072, 2137, 2136
1401, 1747, 1748, 1813, 1812, 2072, 2073, 2138, 2137
1402, 1748, 1749, 1814, 1813, 2073, 2074, 2139, 2138
1403, 1749, 1750, 1815, 1814, 2074, 2075, 2140, 2139
1404, 1750, 1751, 1816, 1815, 2075, 2076, 2141, 2140
1405, 1751, 1752, 1817, 1816, 2076, 2077, 2142, 2141
1406, 1752, 1753, 1818, 1817, 2077, 2078, 2143, 2142
1407, 1753, 1754, 1819, 1818, 2078, 2079, 2144, 2143
1408, 1754, 1755, 1820, 1819, 2079, 2080, 2145, 2144
1409, 1756, 1757, 1822, 1821, 2081, 2082, 2147, 2146
1410, 1757, 1758, 1823, 1822, 2082, 2083, 2148, 2147
1411, 1758, 1759, 1824, 1823, 2083, 2084, 2149, 2148
1412, 1759, 1760, 1825, 1824, 2084, 2085, 2150, 2149
1413, 1760, 1761, 1826, 1825, 2085, 2086, 2151, 2150
1414, 1761, 1762, 1827, 1826, 2086, 2087, 2152, 2151
1415, 1762, 1763, 1828, 1827, 2087, 2088, 2153, 2152
1416, 1763, 1764, 1829, 1828, 2088, 2089, 2154, 2153
1417, 1764, 1765, 1830, 1829, 2089, 2090, 2155, 2154
1418, 1765, 1766, 1831, 1830, 2090, 2091, 2156, 2155
1419, 1766, 1767, 1832, 1831, 2091, 2092, 2157, 2156
1420, 1767, 1768, 1833, 1832, 2092, 2093, 2158, 2157
1421, 1768, 1769, 1834, 1833, 2093, 2094, 2159, 2158
1422, 1769, 1770, 1835, 1834, 2094, 2095, 2160, 2159
1423, 1770, 1771, 1836, 1835, 2095, 2096, 2161, 2160
1424, 1771, 1772, 1837, 1836, 2096, 2097, 2162, 2161
1425, 1772, 1773, 1838, 1837, 2097, 2098, 2163, 2162
1426, 1773, 1774, 1839, 1838, 2098, 2099, 2164, 2163
1427, 1774, 1775, 1840, 1839, 2099, 2100, 2165, 2164
1428, 1775, 1776, 1841, 1840, 2100, 2101, 2166, 2165
1429, 1776, 1777, 1842, 1841, 2101, 2102, 2167, 2166
1430, 1777, 1778, 1843, 1842, 2102, 2103, 2168, 2167
1431, 1778, 1779, 1844, 1843, 2103, 2104, 2169, 2168
1432, 1779, 1780, 1845, 1844, 2104, 2105, 2170, 2169
1433, 1780, 1781, 1846, 1845, 2105, 2106, 2171, 2170
1434, 1781, 1782, 1847, 1846, 2106, 2107, 2172, 2171
1435, 1782, 1783, 1848, 1847, 2107, 2108, 2173, 2172
1436, 1783, 1784, 1849, 1848, 2108, 2109, 2174, 2173
1437, 1784, 1785, 1850, 1849, 2109, 2110, 2175, 2174
1438, 1785, 1786, 1851, 1850, 2110, 2111, 2176, 2175
1439, 1786, 1787, 1852, 1851, 2111, 2112, 2177, 2176
1440, 1787, 1788, 1853, 1852, 2112, 2113, 2178, 2177
1441, 1788, 1789, 1854, 1853, 2113, 2114, 2179, 2178
1442, 1789, 1790, 1855, 1854, 2114, 2115, 2180, 2179
1443, 1790, 1791, 1856, 1855, 2115, 2116, 2181, 2180
1444, 1791, 1792, 1857, 1856, 2116, 2117, 2182, 2181
1445, 1792, 1793, 1858, 1857, 2117, 2118, 2183, 2182
1446, 1793, 1794, 1859, 1858, 2118, 2119, 2184, 2183
1447, 1794, 1795, 1860, 1859, 2119, 2120, 2185, 2184
1448, 1795, 1796, 1861, 1860, 2120, 2121, 2186, 2185
1449, 1796, 1797, 1862, 1861, 2121, 2122, 2187, 2186
1450, 1797, 1798, 1863, 1862, 2122, 2123, 2188, 2187
1451, 1798, 1799, 1864, 1863, 2123, 2124, 2189, 2188
1452, 1799, 1800, 1865, 1864, 2124, 2125, 2190, 2189
1453, 1800, 1801, 1866, 1865, 2125, 2126, 2191, 2190
1454, 1801, 1802, 1867, 1866, 2126, 2127, 2192, 2191
1455, 1802, 1803, 1868, 1867, 2127, 2128, 2193, 2192
1456, 1803, 1804, 1869, 1868, 2128, 2129, 2194, 2193
1457, 1804, 1805, 1870, 1869, 2129, 2130, 2195, 2194
1458, 1805, 1806, 1871, 1870, 2130, 2131, 2196, 2195
1459, 1806, 1807, 1872, 1871, 2131, 2132, 2197, 2196
1460, 1807, 1808, 1873, 1872, 2132, 2133, 2198, 2197
1461, 1808, 1809, 1874, 1873, 2133, 2134, 2199, 2198
1462, 1809, 1810, 1875, 1874, 2134, 2135, 2200, 2199
1463, 1810, 1811, 1876, 1875, 2135, 2136, 2201, 2200
1464, 1811, 1812, 1877, 1876, 2136, 2137, 2202, 2201
1465, 1812, 1813, 1878, 1877, 2137, 2138, 2203, 2202
1466, 1813, 1814, 1879, 1878, 2138, 2139, 2204, 2203
1467, 1814, 1815, 1880, 1879, 2139, 2140, 2205, 2204
1468, 1815, 1816, 1881, 1880, 2140, 2141, 2206, 2205
1469, 1816, 1817, 1882, 1881, 2141, 2142, 2207, 2206
1470, 1817, 1818, 1883, 1882, 2142, 2143, 2208, 2207
1471, 1818, 1819, 1884, 1883, 2143, 2144, 2209, 2208
1472, 1819, 1820, 1885, 1884, 2144, 2145, 2210, 2209
1473, 1821, 1822, 1887, 1886, 2146, 2147, 2212, 2211
1474, 1822, 1823, 1888, 1887, 2147, 2148, 2213, 2212
1475, 1823, 1824, 1889, 1888, 2148, 2149, 2214, 2213
1476, 1824, 1825, 1890, 1889, 2149, 2150, 2215, 2214
1477, 1825, 1826, 1891, 1890, 2150, 2151, 2216, 2215
1478, 1826, 1827, 1892, 1891, 2151, 2152, 2217, 2216
1479, 1827, 1828, 1893, 1892, 2152, 2153, 2218, 2217
1480, 1828, 1829, 1894, 1893, 2153, 2154, 2219, 2218
1481, 1829, 1830, 1895, 1894, 2154, 2155, 2220, 2219
1482, 1830, 1831, 1896, 1895, 2155, 2156, 2221, 2220
1483, 1831, 1832, 1897, 1896, 2156, 2157, 2222, 2221
1484, 1832, 1833, 1898, 1897, 2157, 2158, 2223, 2222
1485, 1833, 1834, 1899, 1898, 2158, 2159, 2224, 2223
1486, 1834, 1835, 1900, 1899, 2159, 2160, 2225, 2224
1487, 1835, 1836, 1901, 1900, 2160, 2161, 2226, 2225
1488, 1836, 1837, 1902, 1901, 2161, 2162, 2227, 2226
1489, 1837, 1838, 1903, 1902, 2162, 2163, 2228, 2227
1490, 1838, 1839, 1904, 1903, 2163, 2164, 2229, 2228
1491, 1839, 1840, 1905, 1904, 2164, 2165, 2230, 2229
1492, 1840, 1841, 1906, 1905, 2165, 2166, 2231, 2230
1493, 1841, 1842, 1907, 1906, 2166, 2167, 2232, 2231
1494, 1842, 1843, 1908, 1907, 2167, 2168, 2233, 2232
1495, 1843, 1844, 1909, 1908, 2168, 2169, 2234, 2233
1496, 1844, 1845, 1910, 1909, 2169, 2170, 2235, 2234
1497, 1845, 1846, 1911, 1910, 2170, 2171, 2236, 2235
1498, 1846, 1847, 1912, 1911, 2171, 2172, 2237, 2236
1499, 1847, 1848, 1913, 1912, 2172, 2173, 2238, 2237
1500, 1848, 1849, 1914, 1913, 2173, 2174, 2239, 2238
1501, 1849, 1850, 1915, 1914, 2174, 2175, 2240, 2239
1502, 1850, 1851, 1916, 1915, 2175, 2176, 2241, 2240
1503, 1851, 1852, 1917, 1916, 2176, 2177, 2242, 2241
1504, 1852, 1853, 1918, 1917, 2177, 2178, 2243, 2242
1505, 1853, 1854, 1919, 1918, 2178, 2179, 2244, 2243
1506, 1854, 1855, 1920, 1919, 2179, 2180, 2245, 2244
1507, 1855, 1856, 1921, 1920, 2180, 2181, 2246, 2245
1508, 1856, 1857, 1922, 1921, 2181, 2182, 2247, 2246
1509, 1857, 1858, 1923, 1922, 2182, 2183, 2248, 2247
1510, 1858, 1859, 1924, 1923, 2183, 2184, 2249, 2248
1511, 1859, 1860, 1925, 1924, 2184, 2185, 2250, 2249
1512, 1860, 1861, 1926, 1925, 2185, 2186, 2251, 2250
1513, 1861, 1862, 1927, 1926, 2186, 2187, 2252, 2251
1514, 1862, 1863, 1928, 1927, 2187, 2188, 2253, 2252
1515, 1863, 1864, 1929, 1928, 2188, 2189, 2254, 2253
1516, 1864, 1865, 1930, 1929, 2189, 2190, 2255, 2254
1517, 1865, 1866, 1931, 1930, 2190, 2191, 2256, 2255
1518, 1866, 1867, 1932, 1931, 2191, 2192, 2257, 2256
1519, 1867, 1868, 1933, 1932, 2192, 2193, 2258, 2257
1520, 1868, 1869, 1934, 1933, 2193, 2194, 2259, 2258
1521, 1869, 1870, 1935, 1934, 2194, 2195, 2260, 2259
1522, 1870, 1871, 1936, 1935, 2195, 2196, 2261, 2260
1523, 1871, 1872, 1937, 1936, 2196, 2197, 2262, 2261
1524, 1872, 1873, 1938, 1937, 2197, 2198, 2263, 2262
1525, 1873, 1874, 1939, 1938, 2198, 2199, 2264, 2263
1526, 1874, 1875, 1940, 1939, 2199, 2200, 2265, 2264
1527, 1875, 1876, 1941, 1940, 2200, 2201, 2266, 2265
1528, 1876, 1877, 1942, 1941, 2201, 2202, 2267, 2266
1529, 1877, 1878, 1943, 1942, 2202, 2203, 2268, 2267
1530, 1878, 1879, 1944, 1943, 2203, 2204, 2269, 2268
1531, 1879, 1880, 1945, 1944, 2204, 2205, 2270, 2269
1532, 1880, 1881, 1946, 1945, 2205, 2206, 2271, 2270
1533, 1881, 1882, 1947, 1946, 2206, 2207, 2272, 2271
1534, 1882, 1883, 1948, 1947, 2207, 2208, 2273, 2272
1535, 1883, 1884, 1949, 1948, 2208, 2209, 2274, 2273
1536, 1884, 1885, 1950, 1949, 2209, 2210, 2275, 2274
1537, 1951, 1952, 2017, 2016, 2276, 2277, 2342, 2341
1538, 1952, 1953, 2018, 2017, 2277, 2278, 2343, 2342
1539, 1953, 1954, 2019, 2018, 2278, 2279, 2344, 2343
1540, 1954, 1955, 2020, 2019, 2279, 2280, 2345, 2344
1541, 1955, 1956, 2021, 2020, 2280, 2281, 2346, 2345
1542, 1956, 1957, 2022, 2021, 2281, 2282, 2347, 2346
1543, 1957, 1958, 2023, 2022, 2282, 2283, 2348, 2347
1544, 1958, 1959, 2024, 2023, 2283, 2284, 2349, 2348
1545, 1959, 1960, 2025, 2024, 2284, 2285, 2350, 2349
1546, 1960, 1961, 2026, 2025, 2285, 2286, 2351, 2350
1547, 1961, 1962, 2027, 2026, 2286, 2287, 2352, 2351
1548, 1962, 1963, 2028, 2027, 2287, 2288, 2353, 2352
1549, 1963, 1964, 2029, 2028, 2288, 2289, 2354, 2353
1550, 1964, 1965, 2030, 2029, 2289, 2290, 2355, 2354
1551, 1965, 1966, 2031, 2030, 2290, 2291, 2356, 2355
1552, 1966, 1967, 2032, 2031, 2291, 2292, 2357, 2356
1553, 1967, 1968, 2033, 2032, 2292, 2293, 2358, 2357
1554, 1968, 1969, 2034, 2033, 2293, 2294, 2359, 2358
1555, 1969, 1970, 2035, 2034, 2294, 2295, 2360, 2359
1556, 1970, 1971, 2036, 2035, 2295, 2296, 2361, 2360
1557, 1971, 1972, 2037, 2036, 2296, 2297, 2362, 2361
1558, 1972, 1973, 2038, 2037, 2297, 2298, 2363, 2362
1559, 1973, 1974, 2039, 2038, 2298, 2299, 2364, 2363
1560, 1974, 1975, 2040, 2039, 2299, 2300, 2365, 2364
1561, 1975, 1976, 2041, 2040, 2300, 2301, 2366, 2365
1562, 1976, 1977, 2042, 2041, 2301, 2302, 2367, 2366
1563, 1977, 1978, 2043, 2042, 2302, 2303, 2368, 2367
1564, 1978, 1979, 2044, 2043, 2303, 2304, 2369, 2368
1565, 1979, 1980, 2045, 2044, 2304, 2305, 2370, 2369
1566, 1980, 1981, 2046, 2045, 2305, 2306, 2371, 2370
1567, 1981, 1982, 2047, 2046, 2306, 2307, 2372, 2371
1568, 1982, 1983, 2048, 2047, 2307, 2308, 2373, 2372
1569, 1983, 1984, 2049, 2048, 2308, 2309, 2374, 2373
1570, 1984, 1985, 2050, 2049, 2309, 2310, 2375, 2374
1571, 1985, 1986, 2051, 2050, 2310, 2311, 2376, 2375
1572, 1986, 1987, 2052, 2051, 2311, 2312, 2377, 2376
1573, 1987, 1988, 2053, 2052, 2312, 2313, 2378, 2377
1574, 1988, 1989, 2054, 2053, 2313, 2314, 2379, 2378
1575, 1989, 1990, 2055, 2054, 2314, 2315, 2380, 2379
1576, 1990, 1991, 2056, 2055, 2315, 2316, 2381, 2380
1577, 1991, 1992, 2057, 2056, 2316, 2317, 2382, 2381
1578, 1992, 1993, 2058, 2057, 2317, 2318, 2383, 2382
1579, 1993, 1994, 2059, 2058, 2318, 2319, 2384, 2383
1580, 1994, 1995, 2060, 2059, 2319, 2320, 2385, 2384
1581, 1995, 1996, 2061, 2060, 2320, 2321, 2386, 2385
1582, 1996, 1997, 2062, 2061, 2321, 2322, 2387, 2386
1583, 1997, 1998, 2063, 2062, 2322, 2323, 2388, 2387
1584, 1998, 1999, 2064, 2063, 2323, 2324, 2389, 2388
1585, 1999, 2000, 2065, 2064, 2324, 2325, 2390, 2389
1586, 2000, 2001, 2066, 2065, 2325, 2326, 2391, 2390
1587, 2001, 2002, 2067, 2066, 2326, 2327, 2392, 2391
1588, 2002, 2003, 2068, 2067, 2327, 2328, 2393, 2392
1589, 2003, 2004, 2069, 2068, 2328, 2329, 2394, 2393
1590, 2004, 2005, 2070, 2069, 2329, 2330, 2395, 2394
1591, 2005, 2006, 2071, 2070, 2330, 2331, 2396, 2395
1592, 2006, 2007, 2072, 2071, 2331, 2332, 2397, 2396
1593, 2007, 2008, 2073, 2072, 2332, 2333, 2398, 2397
1594, 2008, 2009, 2074, 2073, 2333, 2334, 2399, 2398
1595, 2009, 2010, 2075, 2074, 2334, 2335, 2400, 2399
1596, 2010, 2011, 2076, 2075, 2335, 2336, 2401, 2400
1597, 2011, 2012, 2077, 2076, 2336, 2337, 2402, 2401
1598, 2012, 2013, 2078, 2077, 2337, 2338, 2403, 2402
1599, 2013, 2014, 2079, 2078, 2338, 2339, 2404, 2403
1600, 2014, 2015, 2080, 2079, 2339, 2340, 2405, 2404
1601, 2016, 2017, 2082, 2081, 2341, 2342, 2407, 2406
1602, 2017, 2018, 2083, 2082, 2342, 2343, 2408, 2407
1603, 2018, 2019, 2084, 2083, 2343, 2344, 2409, 2408
1604, 2019, 2020, 2085, 2084, 2344, 2345, 2410, 2409
1605, 2020, 2021, 2086, 2085, 2345, 2346, 2411, 2410
1606, 2021, 2022, 2087, 2086, 2346, 2347, 2412, 2411
1607, 2022, 2023, 2088, 2087, 2347, 2348, 2413, 2412
1608, 2023, 2024, 2089, 2088, 2348, 2349, 2414, 2413
1609, 2024, 2025, 2090, 2089, 2349, 2350, 2415, 2414
1610, 2025, 2026, 2091, 2090, 2350, 2351, 2416, 2415
1611, 2026, 2027, 2092, 2091, 2351, 2352, 2417, 2416
1612, 2027, 2028, 2093, 2092, 2352, 2353, 2418, 2417
1613, 2028, 2029, 2094, 2093, 2353, 2354, 2419, 2418
1614, 2029, 2030, 2095, 2094, 2354, 2355, 2420, 2419
1615, 2030, 2031, 2096, 2095, 2355, 2356, 2421, 2420
1616, 2031, 2032, 2097, 2096, 2356, 2357, 2422, 2421
1617, 2032, 2033, 2098, 2097, 2357, 2358, 2423, 2422
1618, 2033, 2034, 2099, 2098, 2358, 2359, 2424, 2423
1619, 2034, 2035, 2100, 2099, 2359, 2360, 2425, 2424
1620, 2035, 2036, 2101, 2100, 2360, 2361, 2426, 2425
1621, 2036, 2037, 2102, 2101, 2361, 2362, 2427, 2426
1622, 2037, 2038, 2103, 2102, 2362, 2363, 2428, 2427
1623, 2038, 2039, 2104, 2103, 2363, 2364, 2429, 2428
1624, 2039, 2040, 2105, 2104, 2364, 2365, 2430, 2429
1625, 2040, 2041, 2106, 2105, 2365, 2366, 2431, 2430
1626, 2041, 2042, 2107, 2106, 2366, 2367, 2432, 2431
1627, 2042, 2043, 2108, 2107, 2367, 2368, 2433, 2432
1628, 2043, 2044, 2109, 2108, 2368, 2369, 2434, 2433
1629, 2044, 2045, 2110, 2109, 2369, 2370, 2435, 2434
1630, 2045, 2046, 2111, 2110, 2370, 2371, 2436, 2435
1631, 2046, 2047, 2112, 2111, 2371, 2372, 2437, 2436
1632, 2047, 2048, 2113, 2112, 2372, 2373, 2438, 2437
1633, 2048, 2049, 2114, 2113, 2373, 2374, 2439, 2438
1634, 2049, 2050, 2115, 2114, 2374, 2375, 2440, 2439
1635, 2050, 2051, 2116, 2115, 2375, 2376, 2441, 2440
1636, 2051, 2052, 2117, 2116, 2376, 2377, 2442, 2441
1637, 2052, 2053, 2118, 2117, 2377, 2378, 2443, 2442
1638, 2053, 2054, 2119, 2118, 2378, 2379, 2444, 2443
1639, 2054, 2055, 2120, 2119, 2379, 2380, 2445, 2444
1640, 2055, 2056, 2121, 2120, 2380, 2381, 2446, 2445
1641, 2056, 2057, 2122, 2121, 2381, 2382, 2447, 2446
1642, 2057, 2058, 2123, 2122, 2382, 2383, 2448, 2447
1643, 2058, 2059, 2124, 2123, 2383, 2384, 2449, 2448
1644, 2059, 2060, 2125, 2124, 2384, 2385, 2450, 2449
1645, 2060, 2061, 2126, 2125, 2385, 2386, 2451, 2450
1646, 2061, 2062, 2127, 2126, 2386, 2387, 2452, 2451
1647, 2062, 2063, 2128, 2127, 2387, 2388, 2453, 2452
1648, 2063, 2064, 2129, 2128, 2388, 2389, 2454, 2453
1649, 2064, 2065, 2130, 2129, 2389, 2390, 2455, 2454
1650, 2065, 2066, 2131, 2130, 2390, 2391, 2456, 2455
1651, 2066, 2067, 2132, 2131, 2391, 2392, 2457, 2456
1652, 2067, 2068, 2133, 2132, 2392, 2393, 2458, 2457
1653, 2068, 2069, 2134, 2133, 2393, 2394, 2459, 2458
1654, 2069, 2070, 2135, 2134, 2394, 2395, 2460, 2459
1655, 2070, 2071, 2136, 2135, 2395, 2396, 2461, 2460
1656, 2071, 2072, 2137, 2136, 2396, 2397, 2462, 2461
1657, 2072, 2073, 2138, 2137, 2397, 2398, 2463, 2462
1658, 2073, 2074, 2139, 2138, 2398, 2399, 2464, 2463
1659, 2074, 2075, 2140, 2139, 2399, 2400, 2465, 2464
1660, 2075, 2076, 2141, 2140, 2400, 2401, 2466, 2465
1661, 2076, 2077, 2142, 2141, 2401, 2402, 2467, 2466
1662, 2077, 2078, 2143, 2142, 2402, 2403, 2468, 2467
1663, 2078, 2079, 2144, 2143, 2403, 2404, 2469, 2468
1664, 2079, 2080, 2145, 2144, 2404, 2405, 2470, 2469
1665, 2081, 2082, 2147, 2146, 2406, 2407, 2472, 2471
1666, 2082, 2083, 2148, 2147, 2407, 2408, 2473, 2472
1667, 2083, 2084, 2149, 2148, 2408, 2409, 2474, 2473
1668, 2084, 2085, 2150, 2149, 2409, 2410, 2475, 2474
1669, 2085, 2086, 2151, 2150, 2410, 2411, 2476, 2475
1670, 2086, 2087, 2152, 2151, 2411, 2412, 2477, 2476
1671, 2087, 2088, 2153, 2152, 2412, 2413, 2478, 2477
1672, 2088, 2089, 2154, 2153, 2413, 2414, 2479, 2478
1673, 2089, 2090, 2155, 2154, 2414, 2415, 2480, 2479
1674, 2090, 2091, 2156, 2155, 2415, 2416, 2481, 2480
1675, 2091, 2092, 2157, 2156, 2416, 2417, 2482, 2481
1676, 2092, 2093, 2158, 2157, 2417, 2418, 2483, 2482
1677, 2093, 2094, 2159, 2158, 2418, 2419, 2484, 2483
1678, 2094, 2095, 2160, 2159, 2419, 2420, 2485, 2484
1679, 2095, 2096, 2161, 2160, 2420, 2421, 2486, 2485
1680, 2096, 2097, 2162, 2161, 2421, 2422, 2487, 2486
1681, 2097, 2098, 2163, 2162, 2422, 2423, 2488, 2487
1682, 2098, 2099, 2164, 2163, 2423, 2424, 2489, 2488
1683, 2099, 2100, 2165, 2164, 2424, 2425, 2490, 2489
1684, 2100, 2101, 2166, 2165, 2425, 2426, 2491, 2490
1685, 2101, 2102, 2167, 2166, 2426, 2427, 2492, 2491
1686, 2102, 2103, 2168, 2167, 2427, 2428, 2493, 2492
1687, 2103, 2104, 2169, 2168, 2428, 2429, 2494, 2493
1688, 2104, 2105, 2170, 2169, 2429, 2430, 2495, 2494
1689, 2105, 2106, 2171, 2170, 2430, 2431, 2496, 2495
1690, 2106, 2107, 2172, 2171, 2431, 2432, 2497, 2496
1691, 2107, 2108, 2173, 2172, 2432, 2433, 2498, 2497
1692, 2108, 2109, 2174, 2173, 2433, 2434, 2499, 2498
1693, 2109, 2110, 2175, 2174, 2434, 2435, 2500, 2499
1694, 2110, 2111, 2176, 2175, 2435, 2436, 2501, 2500
1695, 2111, 2112, 2177, 2176, 2436, 2437, 2502, 2501
1696, 2112, 2113, 2178, 2177, 2437, 2438, 2503, 2502
1697, 2113, 2114, 2179, 2178, 2438, 2439, 2504, 2503
1698, 2114, 2115, 2180, 2179, 2439, 2440, 2505, 2504
1699, 2115, 2116, 2181, 2180, 2440, 2441, 2506, 2505
1700, 2116, 2117, 2182, 2181, 2441, 2442, 2507, 2506
1701, 2117, 2118, 2183, 2182, 2442, 2443, 2508, 2507
1702, 2118, 2119, 2184, 2183, 2443, 2444, 2509, 2508
1703, 2119, 2120, 2185, 2184, 2444, 2445, 2510, 2509
1704, 2120, 2121, 2186, 2185, 2445, 2446, 2511, 2510
1705, 2121, 2122, 2187, 2186, 2446, 2447, 2512, 2511
1706, 2122, 2123, 2188, 2187, 2447, 2448, 2513, 2512
1707, 2123, 2124, 2189, 2188, 2448, 2449, 2514, 2513
1708, 2124, 2125, 2190, 2189, 2449, 2450, 2515, 2514
1709, 2125, 2126, 2191, 2190, 2450, 2451, 2516, 2515
1710, 2126, 2127, 2192, 2191, 2451, 2452, 2517, 2516
1711, 2127, 2128, 2193, 2192, 2452, 2453, 2518, 2517
1712, 2128, 2129, 2194, 2193, 2453, 2454, 2519, 2518
1713, 2129, 2130, 2195, 2194, 2454, 2455, 2520, 2519
1714, 2130, 2131, 2196, 2195, 2455, 2456, 2521, 2520
1715, 2131, 2132, 2197, 2196, 2456, 2457, 2522, 2521
1716, 2132, 2133, 2198, 2197, 2457, 2458, 2523, 2522
1717, 2133, 2134, 2199, 2198, 2458, 2459, 2524, 2523
1718, 2134, 2135, 2200, 2199, 2459, 2460, 2525, 2524
1719, 2135, 2136, 2201, 2200, 2460, 2461, 2526, 2525
1720, 2136, 2137, 2202, 2201, 2461, 2462, 2527, 2526
1721, 2137, 2138, 2203, 2202, 2462, 2463, 2528, 2527
1722, 2138, 2139, 2204, 2203, 2463, 2464, 2529, 2528
1723, 2139, 2140, 2205, 2204, 2464, 2465, 2530, 2529
1724, 2140, 2141, 2206, 2205, 2465, 2466, 2531, 2530
1725, 2141, 2142, 2207, 2206, 2466, 2467, 2532, 2531
1726, 2142, 2143, 2208, 2207, 2467, 2468, 2533, 2532
1727, 2143, 2144, 2209, 2208, 2468, 2469, 2534, 2533
1728, 2144, 2145, 2210, 2209, 2469, 2470, 2535, 2534
1729, 2146, 2147, 2212, 2211, 2471, 2472, 2537, 2536
1730, 2147, 2148, 2213, 2212, 2472, 2473, 2538, 2537
1731, 2148, 2149, 2214, 2213, 2473, 2474, 2539, 2538
1732, 2149, 2150, 2215, 2214, 2474, 2475, 2540, 2539
1733, 2150, 2151, 2216, 2215, 2475, 2476, 2541, 2540
1734, 2151, 2152, 2217, 2216, 2476, 2477, 2542, 2541
1735, 2152, 2153, 2218, 2217, 2477, 2478, 2543, 2542
1736, 2153, 2154, 2219, 2218, 2478, 2479, 2544, 2543
1737, 2154, 2155, 2220, 2219, 2479, 2480, 2545, 2544
1738, 2155, 2156, 2221, 2220, 2480, 2481, 2546, 2545
1739, 2156, 2157, 2222, 2221, 2481, 2482, 2547, 2546
1740, 2157, 2158, 2223, 2222, 2482, 2483, 2548, 2547
1741, 2158, 2159, 2224, 2223, 2483, 2484, 2549, 2548
1742, 2159, 2160, 2225, 2224, 2484, 2485, 2550, 2549
1743, 2160, 2161, 2226, 2225, 2485, 2486, 2551, 2550
1744, 2161, 2162, 2227, 2226, 2486, 2487, 2552, 2551
1745, 2162, 2163, 2228, 2227, 2487, 2488, 2553, 2552
1746, 2163, 2164, 2229, 2228, 2488, 2489, 2554, 2553
1747, 2164, 2165, 2230, 2229, 2489, 2490, 2555, 2554
1748, 2165, 2166, 2231, 2230, 2490, 2491, 2556, 2555
1749, 2166, 2167, 2232, 2231, 2491, 2492, 2557, 2556
1750, 2167, 2168, 2233, 2232, 2492, 2493, 2558, 2557
1751, 2168, 2169, 2234, 2233, 2493, 2494, 2559, 2558
1752, 2169, 2170, 2235, 2234, 2494, 2495, 2560, 2559
1753, 2170, 2171, 2236, 2235, 2495, 2496, 2561, 2560
1754, 2171, 2172, 2237, 2236, 2496, 2497, 2562, 2561
1755, 2172, 2173, 2238, 2237, 2497, 2498, 2563, 2562
1756, 2173, 2174, 2239, 2238, 2498, 2499, 2564, 2563
1757, 2174, 2175, 2240, 2239, 2499, 2500, 2565, 2564
1758, 2175, 2176, 2241, 2240, 2500, 2501, 2566, 2565
1759, 2176, 2177, 2242, 2241, 2501, 2502, 2567, 2566
1760, 2177, 2178, 2243, 2242, 2502, 2503, 2568, 2567
1761, 2178, 2179, 2244, 2243, 2503, 2504, 2569, 2568
1762, 2179, 2180, 2245, 2244, 2504, 2505, 2570, 2569
1763, 2180, 2181, 2246, 2245, 2505, 2506, 2571, 2570
1764, 2181, 2182, 2247, 2246, 2506, 2507, 2572, 2571
1765, 2182, 2183, 2248, 2247, 2507, 2508, 2573, 2572
1766, 2183, 2184, 2249, 2248, 2508, 2509, 2574, 2573
1767, 2184, 2185, 2250, 2249, 2509, 2510, 2575, 2574
1768, 2185, 2186, 2251, 2250, 2510, 2511, 2576, 2575
1769, 2186, 2187, 2252, 2251, 2511, 2512, 2577, 2576
1770, 2187, 2188, 2253, 2252, 2512, 2513, 2578, 2577
1771, 2188, 2189, 2254, 2253, 2513, 2514, 2579, 2578
1772, 2189, 2190, 2255, 2254, 2514, 2515, 2580, 2579
1773, 2190, 2191, 2256, 2255, 2515, 2516, 2581, 2580
1774, 2191, 2192, 2257, 2256, 2516, 2517, 2582, 2581
1775, 2192, 2193, 2258, 2257, 2517, 2518, 2583, 2582
1776, 2193, 2194, 2259, 2258, 2518, 2519, 2584, 2583
1777, 2194, 2195, 2260, 2259, 2519, 2520, 2585, 2584
1778, 2195, 2196, 2261, 2260, 2520, 2521, 2586, 2585
1779, 2196, 2197, 2262, 2261, 2521, 2522, 2587, 2586
1780, 2197, 2198, 2263, 2262, 2522, 2523, 2588, 2587
1781, 2198, 2199, 2264, 2263, 2523, 2524, 2589, 2588
1782, 2199, 2200, 2265, 2264, 2524, 2525, 2590, 2589
1783, 2200, 2201, 2266, 2265, 2525, 2526, 2591, 2590
1784, 2201, 2202, 2267, 2266, 2526, 2527, 2592, 2591
1785, 2202, 2203, 2268, 2267, 2527, 2528, 2593, 2592
1786, 2203, 2204, 2269, 2268, 2528, 2529, 2594, 2593
1787, 2204, 2205, 2270, 2269, 2529, 2530, 2595, 2594
1788, 2205, 2206, 2271, 2270, 2530, 2531, 2596, 2595
1789, 2206, 2207, 2272, 2271, 2531, 2532, 2597, 2596
1790, 2207, 2208, 2273, 2272, 2532, 2533, 2598, 2597
1791, 2208, 2209, 2274, 2273, 2533, 2534, 2599, 2598
1792, 2209, 2210, 2275, 2274, 2534, 2535, 2600, 2599
1793, 2276, 2277, 2342, 2341, 2601, 2602, 2667, 2666
1794, 2277, 2278, 2343, 2342, 2602, 2603, 2668, 2667
1795, 2278, 2279, 2344, 2343, 2603, 2604, 2669, 2668
1796, 2279, 2280, 2345, 2344, 2604, 2605, 2670, 2669
1797, 2280, 2281, 2346, 2345, 2605, 2606, 2671, 2670
1798, 2281, 2282, 2347, 2346, 2606, 2607, 2672, 2671
1799, 2282, 2283, 2348, 2347, 2607, 2608, 2673, 2672
1800, 2283, 2284, 2349, 2348, 2608, 2609, 2674, 2673
1801, 2284, 2285, 2350, 2349, 2609, 2610, 2675, 2674
1802, 2285, 2286, 2351, 2350, 2610, 2611, 2676, 2675
1803, 2286, 2287, 2352, 2351, 2611, 2612, 2677, 2676
1804, 2287, 2288, 2353, 2352, 2612, 2613, 2678, 2677
1805, 2288, 2289, 2354, 2353, 2613, 2614, 2679, 2678
1806, 2289, 2290, 2355, 2354, 2614, 2615, 2680, 2679
1807, 2290, 2291, 2356, 2355, 2615, 2616, 2681, 2680
1808, 2291, 2292, 2357, 2356, 2616, 2617, 2682, 2681
1809, 2292, 2293, 2358, 2357, 2617, 2618, 2683, 2682
1810, 2293, 2294, 2359, 2358, 2618, 2619, 2684, 2683
1811, 2294, 2295, 2360, 2359, 2619, 2620, 2685, 2684
1812, 2295, 2296, 2361, 2360, 2620, 2621, 2686, 2685
1813, 2296, 2297, 2362, 2361, 2621, 2622, 2687, 2686
1814, 2297, 2298, 2363, 2362, 2622, 2623, 2688, 2687
1815, 2298, 2299, 2364, 2363, 2623, 2624, 2689, 2688
1816, 2299, 2300, 2365, 2364, 2624, 2625, 2690, 2689
1817, 2300, 2301, 2366, 2365, 2625, 2626, 2691, 2690
1818, 2301, 2302, 2367, 2366, 2626, 2627, 2692, 2691
1819, 2302, 2303, 2368, 2367, 2627, 2628, 2693, 2692
1820, 2303, 2304, 2369, 2368, 2628, 2629, 2694, 2693
1821, 2304, 2305, 2370, 2369, 2629, 2630, 2695, 2694
1822, 2305, 2306, 2371, 2370, 2630, 2631, 2696, 2695
1823, 2306, 2307, 2372, 2371, 2631, 2632, 2697, 2696
1824, 2307, 2308, 2373, 2372, 2632, 2633, 2698, 2697
1825, 2308, 2309, 2374, 2373, 2633, 2634, 2699, 2698
1826, 2309, 2310, 2375, 2374, 2634, 2635, 2700, 2699
1827, 2310, 2311, 2376, 2375, 2635, 2636, 2701, 2700
1828, 2311, 2312, 2377, 2376, 2636, 2637, 2702, 2701
1829, 2312, 2313, 2378, 2377, 2637, 2638, 2703, 2702
1830, 2313, 2314, 2379, 2378, 2638, 2639, 2704, 2703
1831, 2314, 2315, 2380, 2379, 2639, 2640, 2705, 2704
1832, 2315, 2316, 2381, 2380, 2640, 2641, 2706, 2705
1833, 2316, 2317, 2382, 2381, 2641, 2642, 2707, 2706
1834, 2317, 2318, 2383, 2382, 2642, 2643, 2708, 2707
1835, 2318, 2319, 2384, 2383, 2643, 2644, 2709, 2708
1836, 2319, 2320, 2385, 2384, 2644, 2645, 2710, 2709
1837, 2320, 2321, 2386, 2385, 2645, 2646, 2711, 2710
1838, 2321, 2322, 2387, 2386, 2646, 2647, 2712, 2711
1839, 2322, 2323, 2388, 2387, 2647, 2648, 2713, 2712
1840, 2323, 2324, 2389, 2388, 2648, 2649, 2714, 2713
1841, 2324, 2325, 2390, 2389, 2649, 2650, 2715, 2714
1842, 2325, 2326, 2391, 2390, 2650, 2651, 2716, 2715
1843, 2326, 2327, 2392, 2391, 2651, 2652, 2717, 2716
1844, 2327, 2328, 2393, 2392, 2652, 2653, 2718, 2717
1845, 2328, 2329, 2394, 2393, 2653, 2654, 2719, 2718
1846, 2329, 2330, 2395, 2394, 2654, 2655, 2720, 2719
1847, 2330, 2331, 2396, 2395, 2655, 2656, 2721, 2720
1848, 2331, 2332, 2397, 2396, 2656, 2657, 2722, 2721
1849, 2332, 2333, 2398, 2397, 2657, 2658, 2723, 2722
1850, 2333, 2334, 2399, 2398, 2658, 2659, 2724, 2723
1851, 2334, 2335, 2400, 2399, 2659, 2660, 2725, 2724
1852, 2335, 2336, 2401, 2400, 2660, 2661, 2726, 2725
1853, 2336, 2337, 2402, 2401, 2661, 2662, 2727, 2726
1854, 2337, 2338, 2403, 2402, 2662, 2663, 2728, 2727
1855, 2338, 2339, 2404, 2403, 2663, 2664, 2729, 2728
1856, 2339, 2340, 2405, 2404, 2664, 2665, 2730, 2729
1857, 2341, 2342, 2407, 2406, 2666, 2667, 2732, 2731
1858, 2342, 2343, 2408, 2407, 2667, 2668, 2733, 2732
1859, 2343, 2344, 2409, 2408, 2668, 2669, 2734, 2733
1860, 2344, 2345, 2410, 2409, 2669, 2670, 2735, 2734
1861, 2345, 2346, 2411, 2410, 2670, 2671, 2736, 2735
1862, 2346, 2347, 2412, 2411, 2671, 2672, 2737, 2736
1863, 2347, 2348, 2413, 2412, 2672, 2673, 2738, 2737
1864, 2348, 2349, 2414, 2413, 2673, 2674, 2739, 2738
1865, 2349, 2350, 2415, 2414, 2674, 2675, 2740, 2739
1866, 2350, 2351, 2416, 2415, 2675, 2676, 2741, 2740
1867, 2351, 2352, 2417, 2416, 2676, 2677, 2742, 2741
1868, 2352, 2353, 2418, 2417, 2677, 2678, 2743, 2742
1869, 2353, 2354, 2419, 2418, 2678, 2679, 2744, 2743
1870, 2354, 2355, 2420, 2419, 2679, 2680, 2745, 2744
1871, 2355, 2356, 2421, 2420, 2680, 2681, 2746, 2745
1872, 2356, 2357, 2422, 2421, 2681, 2682, 2747, 2746
1873, 2357, 2358, 2423, 2422, 2682, 2683, 2748, 2747
1874, 2358, 2359, 2424, 2423, 2683, 2684, 2749, 2748
1875, 2359, 2360, 2425, 2424, 2684, 2685, 2750, 2749
1876, 2360, 2361, 2426, 2425, 2685, 2686, 2751, 2750
1877, 2361, 2362, 2427, 2426, 2686, 2687, 2752, 2751
1878, 2362, 2363, 2428, 2427, 2687, 2688, 2753, 2752
1879, 2363, 2364, 2429, 2428, 2688, 2689, 2754, 2753
1880, 2364, 2365, 2430, 2429, 2689, 2690, 2755, 2754
1881, 2365, 2366, 2431, 2430, 2690, 2691, 2756, 2755
1882, 2366, 2367, 2432, 2431, 2691, 2692, 2757, 2756
1883, 2367, 2368, 2433, 2432, 2692, 2693, 2758, 2757
1884, 2368, 2369, 2434, 2433, 2693, 2694, 2759, 2758
1885, 2369, 2370, 2435, 2434, 2694, 2695, 2760, 2759
1886, 2370, 2371, 2436, 2435, 2695, 2696, 2761, 2760
1887, 2371, 2372, 2437, 2436, 2696, 2697, 2762, 2761
1888, 2372, 2373, 2438, 2437, 2697, 2698, 2763, 2762
1889, 2373, 2374, 2439, 2438, 2698, 2699, 2764, 2763
1890, 2374, 2375, 2440, 2439, 2699, 2700, 2765, 2764
1891, 2375, 2376, 2441, 2440, 2700, 2701, 2766, 2765
1892, 2376, 2377, 2442, 2441, 2701, 2702, 2767, 2766
1893, 2377, 2378, 2443, 2442, 2702, 2703, 2768, 2767
1894, 2378, 2379, 2444, 2443, 2703, 2704, 2769, 2768
1895, 2379, 2380, 2445, 2444, 2704, 2705, 2770, 2769
1896, 2380, 2381, 2446, 2445, 2705, 2706, 2771, 2770
1897, 2381, 2382, 2447, 2446, 2706, 2707, 2772, 2771
1898, 2382, 2383, 2448, 2447, 2707, 2708, 2773, 2772
1899, 2383, 2384, 2449, 2448, 2708, 2709, 2774, 2773
1900, 2384, 2385, 2450, 2449, 2709, 2710, 2775, 2774
1901, 2385, 2386, 2451, 2450, 2710, 2711, 2776, 2775
1902, 2386, 2387, 2452, 2451, 2711, 2712, 2777, 2776
1903, 2387, 2388, 2453, 2452, 2712, 2713, 2778, 2777
1904, 2388, 2389, 2454, 2453, 2713, 2714, 2779, 2778
1905, 2389, 2390, 2455, 2454, 2714, 2715, 2780, 2779
1906, 2390, 2391, 2456, 2455, 2715, 2716, 2781, 2780
1907, 2391, 2392, 2457, 2456, 2716, 2717, 2782, 2781
1908, 2392, 2393, 2458, 2457, 2717, 2718, 2783, 2782
1909, 2393, 2394, 2459, 2458, 2718, 2719, 2784, 2783
1910, 2394, 2395, 2460, 2459, 2719, 2720, 2785, 2784
1911, 2395, 2396, 2461, 2460, 2720, 2721, 2786, 2785
1912, 2396, 2397, 2462, 2461, 2721, 2722, 2787, 2786
1913, 2397, 2398, 2463, 2462, 2722, 2723, 2788, 2787
1914, 2398, 2399, 2464, 2463, 2723, 2724, 2789, 2788
1915, 2399, 2400, 2465, 2464, 2724, 2725, 2790, 2789
1916, 2400, 2401, 2466, 2465, 2725, 2726, 2791, 2790
1917, 2401, 2402, 2467, 2466, 2726, 2727, 2792, 2791
1918, 2402, 2403, 2468, 2467, 2727, 2728, 2793, 2792
1919, 2403, 2404, 2469, 2468, 2728, 2729, 2794, 2793
1920, 2404, 2405, 2470, 2469, 2729, 2730, 2795, 2794
1921, 2406, 2407, 2472, 2471, 2731, 2732, 2797, 2796
1922, 2407, 2408, 2473, 2472, 2732, 2733, 2798, 2797
1923, 2408, 2409, 2474, 2473, 2733, 2734, 2799, 2798
1924, 2409, 2410, 2475, 2474, 2734, 2735, 2800, 2799
1925, 2410, 2411, 2476, 2475, 2735, 2736, 2801, 2800
1926, 2411, 2412, 2477, 2476, 2736, 2737, 2802, 2801
1927, 2412, 2413, 2478, 2477, 2737, 2738, 2803, 2802
1928, 2413, 2414, 2479, 2478, 2738, 2739, 2804, 2803
1929, 2414, 2415, 2480, 2479, 2739, 2740, 2805, 2804
1930, 2415, 2416, 2481, 2480, 2740, 2741, 2806, 2805
1931, 2416, 2417, 2482, 2481, 2741, 2742, 2807, 2806
1932, 2417, 2418, 2483, 2482, 2742, 2743, 2808, 2807
1933, 2418, 2419, 2484, 2483, 2743, 2744, 2809, 2808
1934, 2419, 2420, 2485, 2484, 2744, 2745, 2810, 2809
1935, 2420, 2421, 2486, 2485, 2745, 2746, 2811, 2810
1936, 2421, 2422, 2487, 2486, 2746, 2747, 2812, 2811
1937, 2422, 2423, 2488, 2487, 2747, 2748, 2813, 2812
1938, 2423, 2424, 2489, 2488, 2748, 2749, 2814, 2813
1939, 2424, 2425, 2490, 2489, 2749, 2750, 2815, 2814
1940, 2425, 2426, 2491, 2490, 2750, 2751, 2816, 2815
1941, 2426, 2427, 2492, 2491, 2751, 2752, 2817, 2816
1942, 2427, 2428, 2493, 2492, 2752, 2753, 2818, 2817
1943, 2428, 2429, 2494, 2493, 2753, 2754, 2819, 2818
1944, 2429, 2430, 2495, 2494, 2754, 2755, 2820, 2819
1945, 2430, 2431, 2496, 2495, 2755, 2756, 2821, 2820
1946, 2431, 2432, 2497, 2496, 2756, 2757, 2822, 2821
1947, 2432, 2433, 2498, 2497, 2757, 2758, 2823, 2822
1948, 2433, 2434, 2499, 2498, 2758, 2759, 2824, 2823
1949, 2434, 2435, 2500, 2499, 2759, 2760, 2825, 2824
1950, 2435, 2436, 2501, 2500, 2760, 2761, 2826, 2825
1951, 2436, 2437, 2502, 2501, 2761, 2762, 2827, 2826
1952, 2437, 2438, 2503, 2502, 2762, 2763, 2828, 2827
1953, 2438, 2439, 2504, 2503, 2763, 2764, 2829, 2828
1954, 2439, 2440, 2505, 2504, 2764, 2765, 2830, 2829
1955, 2440, 2441, 2506, 2505, 2765, 2766, 2831, 2830
1956, 2441, 2442, 2507, 2506, 2766, 2767, 2832, 2831
1957, 2442, 2443, 2508, 2507, 2767, 2768, 2833, 2832
1958, 2443, 2444, 2509, 2508, 2768, 2769, 2834, 2833
1959, 2444, 2445, 2510, 2509, 2769, 2770, 2835, 2834
1960, 2445, 2446, 2511, 2510, 2770, 2771, 2836, 2835
1961, 2446, 2447, 2512, 2511, 2771, 2772, 2837, 2836
1962, 2447, 2448, 2513, 2512, 2772, 2773, 2838, 2837
1963, 2448, 2449, 2514, 2513, 2773, 2774, 2839, 2838
1964, 2449, 2450, 2515, 2514, 2774, 2775, 2840, 2839
1965, 2450, 2451, 2516, 2515, 2775, 2776, 2841, 2840
1966, 2451, 2452, 2517, 2516, 2776, 2777, 2842, 2841
1967, 2452, 2453, 2518, 2517, 2777, 2778, 2843, 2842
1968, 2453, 2454, 2519, 2518, 2778, 2779, 2844, 2843
1969, 2454, 2455, 2520, 2519, 2779, 2780, 2845, 2844
1970, 2455, 2456, 2521, 2520, 2780, 2781, 2846, 2845
1971, 2456, 2457, 2522, 2521, 2781, 2782, 2847, 2846
1972, 2457, 2458, 2523, 2522, 2782, 2783, 2848, 2847
1973, 2458, 2459, 2524, 2523, 2783, 2784, 2849, 2848
1974, 2459, 2460, 2525, 2524, 2784, 2785, 2850, 2849
1975, 2460, 2461, 2526, 2525, 2785, 2786, 2851, 2850
1976, 2461, 2462, 2527, 2526, 2786, 2787, 2852, 2851
1977, 2462, 2463, 2528, 2527, 2787, 2788, 2853, 2852
1978, 2463, 2464, 2529, 2528, 2788, 2789, 2854, 2853
1979, 2464, 2465, 2530, 2529, 2789, 2790, 2855, 2854
1980, 2465, 2466, 2531, 2530, 2790, 2791, 2856, 2855
1981, 2466, 2467, 2532, 2531, 2791, 2792, 2857, 2856
1982, 2467, 2468, 2533, 2532, 2792, 2793, 2858, 2857
1983, 2468, 2469, 2534, 2533, 2793, 2794, 2859, 2858
1984, 2469, 2470, 2535, 2534, 2794, 2795, 2860, 2859
1985, 2471, 2472, 2537, 2536, 2796, 2797, 2862, 2861
1986, 2472, 2473, 2538, 2537, 2797, 2798, 2863, 2862
1987, 2473, 2474, 2539, 2538, 2798, 2799, 2864, 2863
1988, 2474, 2475, 2540, 2539, 2799, 2800, 2865, 2864
1989, 2475, 2476, 2541, 2540, 2800, 2801, 2866, 2865
1990, 2476, 2477, 2542, 2541, 2801, 2802, 2867, 2866
1991, 2477, 2478, 2543, 2542, 2802, 2803, 2868, 2867
1992, 2478, 2479, 2544, 2543, 2803, 2804, 2869, 2868
1993, 2479, 2480, 2545, 2544, 2804, 2805, 2870, 2869
1994, 2480, 2481, 2546, 2545, 2805, 2806, 2871, 2870
1995, 2481, 2482, 2547, 2546, 2806, 2807, 2872, 2871
1996, 2482, 2483, 2548, 2547, 2807, 2808, 2873, 2872
1997, 2483, 2484, 2549, 2548, 2808, 2809, 2874, 2873
1998, 2484, 2485, 2550, 2549, 2809, 2810, 2875, 2874
1999, 2485, 2486, 2551, 2550, 2810, 2811, 2876, 2875
2000, 2486, 2487, 2552, 2551, 2811, 2812, 2877, 2876
2001, 2487, 2488, 2553, 2552, 2812, 2813, 2878, 2877
2002, 2488, 2489, 2554, 2553, 2813, 2814, 2879, 2878
2003, 2489, 2490, 2555, 2554, 2814, 2815, 2880, 2879
2004, 2490, 2491, 2556, 2555, 2815, 2816, 2881, 2880
2005, 2491, 2492, 2557, 2556, 2816, 2817, 2882, 2881
2006, 2492, 2493, 2558, 2557, 2817, 2818, 2883, 2882
2007, 2493, 2494, 2559, 2558, 2818, 2819, 2884, 2883
2008, 2494, 2495, 2560, 2559, 2819, 2820, 2885, 2884
2009, 2495, 2496, 2561, 2560, 2820, 2821, 2886, 2885
2010, 2496, 2497, 2562, 2561, 2821, 2822, 2887, 2886
2011, 2497, 2498, 2563, 2562, 2822, 2823, 2888, 2887
2012, 2498, 2499, 2564, 2563, 2823, 2824, 2889, 2888
2013, 2499, 2500, 2565, 2564, 2824, 2825, 2890, 2889
2014, 2500, 2501, 2566, 2565, 2825, 2826, 2891, 2890
2015, 2501, 2502, 2567, 2566, 2826, 2827, 2892, 2891
2016, 2502, 2503, 2568, 2567, 2827, 2828, 2893, 2892
2017, 2503, 2504, 2569, 2568, 2828, 2829, 2894, 2893
2018, 2504, 2505, 2570, 2569, 2829, 2830, 2895, 2894
2019, 2505, 2506, 2571, 2570, 2830, 2831, 2896, 2895
2020, 2506, 2507, 2572, 2571, 2831, 2832, 2897, 2896
2021, 2507, 2508, 2573, 2572, 2832, 2833, 2898, 2897
2022, 2508, 2509, 2574, 2573, 2833, 2834, 2899, 2898
2023, 2509, 2510, 2575, 2574, 2834, 2835, 2900, 2899
2024, 2510, 2511, 2576, 2575, 2835, 2836, 2901, 2900
2025, 2511, 2512, 2577, 2576, 2836, 2837, 2902, 2901
2026, 2512, 2513, 2578, 2577, 2837, 2838, 2903, 2902
2027, 2513, 2514, 2579, 2578, 2838, 2839, 2904, 2903
2028, 2514, 2515, 2580, 2579, 2839, 2840, 2905, 2904
2029, 2515, 2516, 2581, 2580, 2840, 2841, 2906, 2905
2030, 2516, 2517, 2582, 2581, 2841, 2842, 2907, 2906
2031, 2517, 2518, 2583, 2582, 2842, 2843, 2908, 2907
2032, 2518, 2519, 2584, 2583, 2843, 2844, 2909, 2908
2033, 2519, 2520, 2585, 2584, 2844, 2845, 2910, 2909
2034, 2520, 2521, 2586, 2585, 2845, 2846, 2911, 2910
2035, 2521, 2522, 2587, 2586, 2846, 2847, 2912, 2911
2036, 2522, 2523, 2588, 2587, 2847, 2848, 2913, 2912
2037, 2523, 2524, 2589, 2588, 2848, 2849, 2914, 2913
2038, 2524, 2525, 2590, 2589, 2849, 2850, 2915, 2914
2039, 2525, 2526, 2591, 2590, 2850, 2851, 2916, 2915
2040, 2526, 2527, 2592, 2591, 2851, 2852, 2917, 2916
2041, 2527, 2528, 2593, 2592, 2852, 2853, 2918, 2917
2042, 2528, 2529, 2594, 2593, 2853, 2854, 2919, 2918
2043, 2529, 2530, 2595, 2594, 2854, 2855, 2920, 2919
2044, 2530, 2531, 2596, 2595, 2855, 2856, 2921, 2920
2045, 2531, 2532, 2597, 2596, 2856, 2857, 2922, 2921
2046, 2532, 2533, 2598, 2597, 2857, 2858, 2923, 2922
2047, 2533, 2534, 2599, 2598, 2858, 2859, 2924, 2923
2048, 2534, 2535, 2600, 2599, 2859, 2860, 2925, 2924
*NSET, NSET=NALL
1, 2, 3, 4, 5, 6, 7, 8, 9, 10, 11, 12, 13, 14, 15, 16
17, 18, 19, 20, 21, 22, 23, 24, 25, 26, 27, 28, 29, 30, 31, 32
33, 34, 35, 36, 37, 38, 39, 40, 41, 42, 43, 44, 45, 46, 47, 48
49, 50, 51, 52, 53, 54, 55, 56, 57, 58, 59, 60, 61, 62, 63, 64
65, 66, 67, 68, 69, 70, 71, 72, 73, 74, 75, 76, 77, 78, 79, 80
81, 82, 83, 84, 85, 86, 87, 88, 89, 90, 91, 92, 93, 94, 95, 96
97, 98, 99, 100, 101, 102, 103, 104, 105, 106, 107, 108, 109, 110, 111, 112
113, 114, 115, 116, 117, 118, 119, 120, 121, 122, 123, 124, 125, 126, 127, 128
129, 130, 131, 132, 133, 134, 135, 136, 137, 138, 139, 140, 141, 142, 143, 144
145, 146, 147, 148, 149, 150, 151, 152, 153, 154, 155, 156, 157, 158, 159, 160
161, 162, 163, 164, 165, 166, 167, 168, 169, 170, 171, 172, 173, 174, 175, 176
177, 178, 179, 180, 181, 182, 183, 184, 185, 186, 187, 188, 189, 190, 191, 192
193, 194, 195, 196, 197, 198, 199, 200, 201, 202, 203, 204, 205, 206, 207, 208
209, 210, 211, 212, 213, 214, 215, 216, 217, 218, 219, 220, 221, 222, 223, 224
225, 226, 227, 228, 229, 230, 231, 232, 233, 234, 235, 236, 237, 238, 239, 240
241, 242, 243, 244, 245, 246, 247, 248, 249, 250, 251, 252, 253, 254, 255, 256
257, 258, 259, 260, 261, 262, 263, 264, 265, 266, 267, 268, 269, 270, 271, 272
273, 274, 275, 276, 277, 278, 279, 280, 281, 282, 283, 284, 285, 286, 287, 288
289, 290, 291, 292, 293, 294, 295, 296, 297, 298, 299, 300, 301, 302, 303, 304
305, 306, 307, 308, 309, 310, 311, 312, 313, 314, 315, 316, 317, 318, 319, 320
321, 322, 323, 324, 325, 326, 327, 328, 329, 330, 331, 332, 333, 334, 335, 336
337, 338, 339, 340, 341, 342, 343, 344, 345, 346, 347, 348, 349, 350, 351, 352
353, 354, 355, 356, 357, 358, 359, 360, 361, 362, 363, 364, 365, 366, 367, 368
369, 370, 371, 372, 373, 374, 375, 376, 377, 378, 379, 380, 381, 382, 383, 384
385, 386, 387, 388, 389, 390, 391, 392, 393, 394, 395, 396, 397, 398, 399, 400
401, 402, 403, 404, 405, 406, 407, 408, 409, 410, 411, 412, 413, 414, 415, 416
417, 418, 419, 420, 421, 422, 423, 424, 425, 426, 427, 428, 429, 430, 431, 432
433, 434, 435, 436, 437, 438, 439, 440, 441, 442, 443, 444, 445, 446, 447, 448
449, 450, 451, 452, 453, 454, 455, 456, 457, 458, 459, 460, 461, 462, 463, 464
465, 466, 467, 468, 469, 470, 471, 472, 473, 474, 475, 476, 477, 478, 479, 480
481, 482, 483, 484, 485, 486, 487, 488, 489, 490, 491, 492, 493, 494, 495, 496
497, 498, 499, 500, 501, 502, 503, 504, 505, 506, 507, 508, 509, 510, 511, 512
513, 514, 515, 516, 517, 518, 519, 520, 521, 522, 523, 524, 525, 526, 527, 528
529, 530, 531, 532, 533, 534, 535, 536, 537, 538, 539, 540, 541, 542, 543, 544
545, 546, 547, 548, 549, 550, 551, 552, 553, 554, 555, 556, 557, 558, 559, 560
561, 562, 563, 564, 565, 566, 567, 568, 569, 570, 571, 572, 573, 574, 575, 576
577, 578, 579, 580, 581, 582, 583, 584, 585, 586, 587, 588, 589, 590, 591, 592
593, 594, 595, 596, 597, 598, 599, 600, 601, 602, 603, 604, 605, 606, 607, 608
609, 610, 611, 612, 613, 614, 615, 616, 617, 618, 619, 620, 621, 622, 623, 624
625, 626, 627, 628, 629, 630, 631, 632, 633, 634, 635, 636, 637, 638, 639, 640
641, 642, 643, 644, 645, 646, 647, 648, 649, 650, 651, 652, 653, 654, 655, 656
657, 658, 659, 660, 661, 662, 663, 664, 665, 666, 667, 668, 669, 670, 671, 672
673, 674, 675, 676, 677, 678, 679, 680, 681, 682, 683, 684, 685, 686, 687, 688
689, 690, 691, 692, 693, 694, 695, 696, 697, 698, 699, 700, 701, 702, 703, 704
705, 706, 707, 708, 709, 710, 711, 712, 713, 714, 715, 716, 717, 718, 719, 720
721, 722, 723, 724, 725, 726, 727, 728, 729, 730, 731, 732, 733, 734, 735, 736
737, 738, 739, 740, 741, 742, 743, 744, 745, 746, 747, 748, 749, 750, 751, 752
753, 754, 755, 756, 757, 758, 759, 760, 761, 762, 763, 764, 765, 766, 767, 768
769, 770, 771, 772, 773, 774, 775, 776, 777, 778, 779, 780, 781, 782, 783, 784
785, 786, 787, 788, 789, 790, 791, 792, 793, 794, 795, 796, 797, 798, 799, 800
801, 802, 803, 804, 805, 806, 807, 808, 809, 810, 811, 812, 813, 814, 815, 816
817, 818, 819, 820, 821, 822, 823, 824, 825, 826, 827, 828, 829, 830, 831, 832
833, 834, 835, 836, 837, 838, 839, 840, 841, 842, 843, 844, 845, 846, 847, 848
849, 850, 851, 852, 853, 854, 855, 856, 857, 858, 859, 860, 861, 862, 863, 864
865, 866, 867, 868, 869, 870, 871, 872, 873, 874, 875, 876, 877, 878, 879, 880
881, 882, 883, 884, 885, 886, 887, 888, 889, 890, 891, 892, 893, 894, 895, 896
897, 898, 899, 900, 901, 902, 903, 904, 905, 906, 907, 908, 909, 910, 911, 912
913, 914, 915, 916, 917, 918, 919, 920, 921, 922, 923, 924, 925, 926, 927, 928
929, 930, 931, 932, 933, 934, 935, 936, 937, 938, 939, 940, 941, 942, 943, 944
945, 946, 947, 948, 949, 950, 951, 952, 953, 954, 955, 956, 957, 958, 959, 960
961, 962, 963, 964, 965, 966, 967, 968, 969, 970, 971, 972, 973, 974, 975, 976
977, 978, 979, 980, 981, 982, 983, 984, 985, 986, 987, 988, 989, 990, 991, 992
993, 994, 995, 996, 997, 998, 999, 1000, 1001, 1002, 1003, 1004, 1005, 1006, 1007, 1008
1009, 1010, 1011, 1012, 1013, 1014, 1015, 1016, 1017, 1018, 1019, 1020, 1021, 1022, 1023, 1024
1025, 1026, 1027, 1028, 1029, 1030, 1031, 1032, 1033, 1034, 1035, 1036, 1037, 1038, 1039, 1040
1041, 1042, 1043, 1044, 1045, 1046, 1047, 1048, 1049, 1050, 1051, 1052, 1053, 1054, 1055, 1056
1057, 1058, 1059, 1060, 1061, 1062, 1063, 1064, 1065, 1066, 1067, 1068, 1069, 1070, 1071, 1072
1073, 1074, 1075, 1076, 1077, 1078, 1079, 1080, 1081, 1082, 1083, 1084, 1085, 1086, 1087, 1088
1089, 1090, 1091, 1092, 1093, 1094, 1095, 1096, 1097, 1098, 1099, 1100, 1101, 1102, 1103, 1104
1105, 1106, 1107, 1108, 1109, 1110, 1111, 1112, 1113, 1114, 1115, 1116, 1117, 1118, 1119, 1120
1121, 1122, 1123, 1124, 1125, 1126, 1127, 1128, 1129, 1130, 1131, 1132, 1133, 1134, 1135, 1136
1137, 1138, 1139, 1140, 1141, 1142, 1143, 1144, 1145, 1146, 1147, 1148, 1149, 1150, 1151, 1152
1153, 1154, 1155, 1156, 1157, 1158, 1159, 1160, 1161, 1162, 1163, 1164, 1165, 1166, 1167, 1168
1169, 1170, 1171, 1172, 1173, 1174, 1175, 1176, 1177, 1178, 1179, 1180, 1181, 1182, 1183, 1184
1185, 1186, 1187, 1188, 1189, 1190, 1191, 1192, 1193, 1194, 1195, 1196, 1197, 1198, 1199, 1200
1201, 1202, 1203, 1204, 1205, 1206, 1207, 1208, 1209, 1210, 1211, 1212, 1213, 1214, 1215, 1216
1217, 1218, 1219, 1220, 1221, 1222, 1223, 1224, 1225, 1226, 1227, 1228, 1229, 1230, 1231, 1232
1233, 1234, 1235, 1236, 1237, 1238, 1239, 1240, 1241, 1242, 1243, 1244, 1245, 1246, 1247, 1248
1249, 1250, 1251, 1252, 1253, 1254, 1255, 1256, 1257, 1258, 1259, 1260, 1261, 1262, 1263, 1264
1265, 1266, 1267, 1268, 1269, 1270, 1271, 1272, 1273, 1274, 1275, 1276, 1277, 1278, 1279, 1280
1281, 1282, 1283, 1284, 1285, 1286, 1287, 1288, 1289, 1290, 1291, 1292, 1293, 1294, 1295, 1296
1297, 1298, 1299, 1300, 1301, 1302, 1303, 1304, 1305, 1306, 1307, 1308, 1309, 1310, 1311, 1312
1313, 1314, 1315, 1316, 1317, 1318, 1319, 1320, 1321, 1322, 1323, 1324, 1325, 1326, 1327, 1328
1329, 1330, 1331, 1332, 1333, 1334, 1335, 1336, 1337, 1338, 1339, 1340, 1341, 1342, 1343, 1344
1345, 1346, 1347, 1348, 1349, 1350, 1351, 1352, 1353, 1354, 1355, 1356, 1357, 1358, 1359, 1360
1361, 1362, 1363, 1364, 1365, 1366, 1367, 1368, 1369, 1370, 1371, 1372, 1373, 1374, 1375, 1376
1377, 1378, 1379, 1380, 1381, 1382, 1383, 1384, 1385, 1386, 1387, 1388, 1389, 1390, 1391, 1392
1393, 1394, 1395, 1396, 1397, 1398, 1399, 1400, 1401, 1402, 1403, 1404, 1405, 1406, 1407, 1408
1409, 1410, 1411, 1412, 1413, 1414, 1415, 1416, 1417, 1418, 1419, 1420, 1421, 1422, 1423, 1424
1425, 1426, 1427, 1428, 1429, 1430, 1431, 1432, 1433, 1434, 1435, 1436, 1437, 1438, 1439, 1440
1441, 1442, 1443, 1444, 1445, 1446, 1447, 1448, 1449, 1450, 1451, 1452, 1453, 1454, 1455, 1456
1457, 1458, 1459, 1460, 1461, 1462, 1463, 1464, 1465, 1466, 1467, 1468, 1469, 1470, 1471, 1472
1473, 1474, 1475, 1476, 1477, 1478, 1479, 1480, 1481, 1482, 1483, 1484, 1485, 1486, 1487, 1488
1489, 1490, 1491, 1492, 1493, 1494, 1495, 1496, 1497, 1498, 1499, 1500, 1501, 1502, 1503, 1504
1505, 1506, 1507, 1508, 1509, 1510, 1511, 1512, 1513, 1514, 1515, 1516, 1517, 1518, 1519, 1520
1521, 1522, 1523, 1524, 1525, 1526, 1527, 1528, 1529, 1530, 1531, 1532, 1533, 1534, 1535, 1536
1537, 1538, 1539, 1540, 1541, 1542, 1543, 1544, 1545, 1546, 1547, 1548, 1549, 1550, 1551, 1552
1553, 1554, 1555, 1556, 1557, 1558, 1559, 1560, 1561, 1562, 1563, 1564, 1565, 1566, 1567, 1568
1569, 1570, 1571, 1572, 1573, 1574, 1575, 1576, 1577, 1578, 1579, 1580, 1581, 1582, 1583, 1584
1585, 1586, 1587, 1588, 1589, 1590, 1591, 1592, 1593, 1594, 1595, 1596, 1597, 1598, 1599, 1600
1601, 1602, 1603, 1604, 1605, 1606, 1607, 1608, 1609, 1610, 1611, 1612, 1613, 1614, 1615, 1616
1617, 1618, 1619, 1620, 1621, 1622, 1623, 1624, 1625, 1626, 1627, 1628, 1629, 1630, 1631, 1632
1633, 1634, 1635, 1636, 1637, 1638, 1639, 1640, 1641, 1642, 1643, 1644, 1645, 1646, 1647, 1648
1649, 1650, 1651, 1652, 1653, 1654, 1655, 1656, 1657, 1658, 1659, 1660, 1661, 1662, 1663, 1664
1665, 1666, 1667, 1668, 1669, 1670, 1671, 1672, 1673, 1674, 1675, 1676, 1677, 1678, 1679, 1680
1681, 1682, 1683, 1684, 1685, 1686, 1687, 1688, 1689, 1690, 1691, 1692, 1693, 1694, 1695, 1696
1697, 1698, 1699, 1700, 1701, 1702, 1703, 1704, 1705, 1706, 1707, 1708, 1709, 1710, 1711, 1712
1713, 1714, 1715, 1716, 1717, 1718, 1719, 1720, 1721, 1722, 1723, 1724, 1725, 1726, 1727, 1728
1729, 1730, 1731, 1732, 1733, 1734, 1735, 1736, 1737, 1738, 1739, 1740, 1741, 1742, 1743, 1744
1745, 1746, 1747, 1748, 1749, 1750, 1751, 1752, 1753, 1754, 1755, 1756, 1757, 1758, 1759, 1760
1761, 1762, 1763, 1764, 1765, 1766, 1767, 1768, 1769, 1770, 1771, 1772, 1773, 1774, 1775, 1776
1777, 1778, 1779, 1780, 1781, 1782, 1783, 1784, 1785, 1786, 1787, 1788, 1789, 1790, 1791, 1792
1793, 1794, 1795, 1796, 1797, 1798, 1799, 1800, 1801, 1802, 1803, 1804, 1805, 1806, 1807, 1808
1809, 1810, 1811, 1812, 1813, 1814, 1815, 1816, 1817, 1818, 1819, 1820, 1821, 1822, 1823, 1824
1825, 1826, 1827, 1828, 1829, 1830, 1831, 1832, 1833, 1834, 1835, 1836, 1837, 1838, 1839, 1840
1841, 1842, 1843, 1844, 1845, 1846, 1847, 1848, 1849, 1850, 1851, 1852, 1853, 1854, 1855, 1856
1857, 1858, 1859, 1860, 1861, 1862, 1863, 1864, 1865, 1866, 1867, 1868, 1869, 1870, 1871, 1872
1873, 1874, 1875, 1876, 1877, 1878, 1879, 1880, 1881, 1882, 1883, 1884, 1885, 1886, 1887, 1888
1889, 1890, 1891, 1892, 1893, 1894, 1895, 1896, 1897, 1898, 1899, 1900, 1901, 1902, 1903, 1904
1905, 1906, 1907, 1908, 1909, 1910, 1911, 1912, 1913, 1914, 1915, 1916, 1917, 1918, 1919, 1920
1921, 1922, 1923, 1924, 1925, 1926, 1927, 1928, 1929, 1930, 1931, 1932, 1933, 1934, 1935, 1936
1937, 1938, 1939, 1940, 1941, 1942, 1943, 1944, 1945, 1946, 1947, 1948, 1949, 1950, 1951, 1952
1953, 1954, 1955, 1956, 1957, 1958, 1959, 1960, 1961, 1962, 1963, 1964, 1965, 1966, 1967, 1968
1969, 1970, 1971, 1972, 1973, 1974, 1975, 1976, 1977, 1978, 1979, 1980, 1981, 1982, 1983, 1984
1985, 1986, 1987, 1988, 1989, 1990, 1991, 1992, 1993, 1994, 1995, 1996, 1997, 1998, 1999, 2000
2001, 2002, 2003, 2004, 2005, 2006, 2007, 2008, 2009, 2010, 2011, 2012, 2013, 2014, 2015, 2016
2017, 2018, 2019, 2020, 2021, 2022, 2023, 2024, 2025, 2026, 2027, 2028, 2029, 2030, 2031, 2032
2033, 2034, 2035, 2036, 2037, 2038, 2039, 2040, 2041, 2042, 2043, 2044, 2045, 2046, 2047, 2048
2049, 2050, 2051, 2052, 2053, 2054, 2055, 2056, 2057, 2058, 2059, 2060, 2061, 2062, 2063, 2064
2065, 2066, 2067, 2068, 2069, 2070, 2071, 2072, 2073, 2074, 2075, 2076, 2077, 2078, 2079, 2080
2081, 2082, 2083, 2084, 2085, 2086, 2087, 2088, 2089, 2090, 2091, 2092, 2093, 2094, 2095, 2096
2097, 2098, 2099, 2100, 2101, 2102, 2103, 2104, 2105, 2106, 2107, 2108, 2109, 2110, 2111, 2112
2113, 2114, 2115, 2116, 2117, 2118, 2119, 2120, 2121, 2122, 2123, 2124, 2125, 2126, 2127, 2128
2129, 2130, 2131, 2132, 2133, 2134, 2135, 2136, 2137, 2138, 2139, 2140, 2141, 2142, 2143, 2144
2145, 2146, 2147, 2148, 2149, 2150, 2151, 2152, 2153, 2154, 2155, 2156, 2157, 2158, 2159, 2160
2161, 2162, 2163, 2164, 2165, 2166, 2167, 2168, 2169, 2170, 2171, 2172, 2173, 2174, 2175, 2176
2177, 2178, 2179, 2180, 2181, 2182, 2183, 2184, 2185, 2186, 2187, 2188, 2189, 2190, 2191, 2192
2193, 2194, 2195, 2196, 2197, 2198, 2199, 2200, 2201, 2202, 2203, 2204, 2205, 2206, 2207, 2208
2209, 2210, 2211, 2212, 2213, 2214, 2215, 2216, 2217, 2218, 2219, 2220, 2221, 2222, 2223, 2224
2225, 2226, 2227, 2228, 2229, 2230, 2231, 2232, 2233, 2234, 2235, 2236, 2237, 2238, 2239, 2240
2241, 2242, 2243, 2244, 2245, 2246, 2247, 2248, 2249, 2250, 2251, 2252, 2253, 2254, 2255, 2256
2257, 2258, 2259, 2260, 2261, 2262, 2263, 2264, 2265, 2266, 2267, 2268, 2269, 2270, 2271, 2272
2273, 2274, 2275, 2276, 2277, 2278, 2279, 2280, 2281, 2282, 2283, 2284, 2285, 2286, 2287, 2288
2289, 2290, 2291, 2292, 2293, 2294, 2295, 2296, 2297, 2298, 2299, 2300, 2301, 2302, 2303, 2304
2305, 2306, 2307, 2308, 2309, 2310, 2311, 2312, 2313, 2314, 2315, 2316, 2317, 2318, 2319, 2320
2321, 2322, 2323, 2324, 2325, 2326, 2327, 2328, 2329, 2330, 2331, 2332, 2333, 2334, 2335, 2336
2337, 2338, 2339, 2340, 2341, 2342, 2343, 2344, 2345, 2346, 2347, 2348, 2349, 2350, 2351, 2352
2353, 2354, 2355, 2356, 2357, 2358, 2359, 2360, 2361, 2362, 2363, 2364, 2365, 2366, 2367, 2368
2369, 2370, 2371, 2372, 2373, 2374, 2375, 2376, 2377, 2378, 2379, 2380, 2381, 2382, 2383, 2384
2385, 2386, 2387, 2388, 2389, 2390, 2391, 2392, 2393, 2394, 2395, 2396, 2397, 2398, 2399, 2400
2401, 2402, 2403, 2404, 2405, 2406, 2407, 2408, 2409, 2410, 2411, 2412, 2413, 2414, 2415, 2416
2417, 2418, 2419, 2420, 2421, 2422, 2423, 2424, 2425, 2426, 2427, 2428, 2429, 2430, 2431, 2432
2433, 2434, 2435, 2436, 2437, 2438, 2439, 2440, 2441, 2442, 2443, 2444, 2445, 2446, 2447, 2448
2449, 2450, 2451, 2452, 2453, 2454, 2455, 2456, 2457, 2458, 2459, 2460, 2461, 2462, 2463, 2464
2465, 2466, 2467, 2468, 2469, 2470, 2471, 2472, 2473, 2474, 2475, 2476, 2477, 2478, 2479, 2480
2481, 2482, 2483, 2484, 2485, 2486, 2487, 2488, 2489, 2490, 2491, 2492, 2493, 2494, 2495, 2496
2497, 2498, 2499, 2500, 2501, 2502, 2503, 2504, 2505, 2506, 2507, 2508, 2509, 2510, 2511, 2512
2513, 2514, 2515, 2516, 2517, 2518, 2519, 2520, 2521, 2522, 2523, 2524, 2525, 2526, 2527, 2528
2529, 2530, 2531, 2532, 2533, 2534, 2535, 2536, 2537, 2538, 2539, 2540, 2541, 2542, 2543, 2544
2545, 2546, 2547, 2548, 2549, 2550, 2551, 2552, 2553, 2554, 2555, 2556, 2557, 2558, 2559, 2560
2561, 2562, 2563, 2564, 2565, 2566, 2567, 2568, 2569, 2570, 2571, 2572, 2573, 2574, 2575, 2576
2577, 2578, 2579, 2580, 2581, 2582, 2583, 2584, 2585, 2586, 2587, 2588, 2589, 2590, 2591, 2592
2593, 2594, 2595, 2596, 2597, 2598, 2599, 2600, 2601, 2602, 2603, 2604, 2605, 2606, 2607, 2608
2609, 2610, 2611, 2612, 2613, 2614, 2615, 2616, 2617, 2618, 2619, 2620, 2621, 2622, 2623, 2624
2625, 2626, 2627, 2628, 2629, 2630, 2631, 2632, 2633, 2634, 2635, 2636, 2637, 2638, 2639, 2640
2641, 2642, 2643, 2644, 2645, 2646, 2647, 2648, 2649, 2650, 2651, 2652, 2653, 2654, 2655, 2656
2657, 2658, 2659, 2660, 2661, 2662, 2663, 2664, 2665, 2666, 2667, 2668, 2669, 2670, 2671, 2672
2673, 2674, 2675, 2676, 2677, 2678, 2679, 2680, 2681, 2682, 2683, 2684, 2685, 2686, 2687, 2688
2689, 2690, 2691, 2692, 2693, 2694, 2695, 2696, 2697, 2698, 2699, 2700, 2701, 2702, 2703, 2704
2705, 2706, 2707, 2708, 2709, 2710, 2711, 2712, 2713, 2714, 2715, 2716, 2717, 2718, 2719, 2720
2721, 2722, 2723, 2724, 2725, 2726, 2727, 2728, 2729, 2730, 2731, 2732, 2733, 2734, 2735, 2736
2737, 2738, 2739, 2740, 2741, 2742, 2743, 2744, 2745, 2746, 2747, 2748, 2749, 2750, 2751, 2752
2753, 2754, 2755, 2756, 2757, 2758, 2759, 2760, 2761, 2762, 2763, 2764, 2765, 2766, 2767, 2768
2769, 2770, 2771, 2772, 2773, 2774, 2775, 2776, 2777, 2778, 2779, 2780, 2781, 2782, 2783, 2784
2785, 2786, 2787, 2788, 2789, 2790, 2791, 2792, 2793, 2794, 2795, 2796, 2797, 2798, 2799, 2800
2801, 2802, 2803, 2804, 2805, 2806, 2807, 2808, 2809, 2810, 2811, 2812, 2813, 2814, 2815, 2816
2817, 2818, 2819, 2820, 2821, 2822, 2823, 2824, 2825, 2826, 2827, 2828, 2829, 2830, 2831, 2832
2833, 2834, 2835, 2836, 2837, 2838, 2839, 2840, 2841, 2842, 2843, 2844, 2845, 2846, 2847, 2848
2849, 2850, 2851, 2852, 2853, 2854, 2855, 2856, 2857, 2858, 2859, 2860, 2861, 2862, 2863, 2864
2865, 2866, 2867, 2868, 2869, 2870, 2871, 2872, 2873, 2874, 2875, 2876, 2877, 2878, 2879, 2880
2881, 2882, 2883, 2884, 2885, 2886, 2887, 2888, 2889, 2890, 2891, 2892, 2893, 2894, 2895, 2896
2897, 2898, 2899, 2900, 2901, 2902, 2903, 2904, 2905, 2906, 2907, 2908, 2909, 2910, 2911, 2912
2913, 2914, 2915, 2916, 2917, 2918, 2919, 2920, 2921, 2922, 2923, 2924, 2925
*NSET, NSET=XMIN
1, 66, 131, 196, 261, 326, 391, 456, 521, 586, 651, 716, 781, 846, 911, 976
1041, 1106, 1171, 1236, 1301, 1366, 1431, 1496, 1561, 1626, 1691, 1756, 1821, 1886, 1951, 2016
2081, 2146, 2211, 2276, 2341, 2406, 2471, 2536, 2601, 2666, 2731, 2796, 2861
*NSET, NSET=YMIN
1, 2, 3, 4, 5, 6, 7, 8, 9, 10, 11, 12, 13, 14, 15, 16
17, 18, 19, 20, 21, 22, 23, 24, 25, 26, 27, 28, 29, 30, 31, 32
33, 34, 35, 36, 37, 38, 39, 40, 41, 42, 43, 44, 45, 46, 47, 48
49, 50, 51, 52, 53, 54, 55, 56, 57, 58, 59, 60, 61, 62, 63, 64
65, 326, 327, 328, 329, 330, 331, 332, 333, 334, 335, 336, 337, 338, 339, 340
341, 342, 343, 344, 345, 346, 347, 348, 349, 350, 351, 352, 353, 354, 355, 356
357, 358, 359, 360, 361, 362, 363, 364, 365, 366, 367, 368, 369, 370, 371, 372
373, 374, 375, 376, 377, 378, 379, 380, 381, 382, 383, 384, 385, 386, 387, 388
389, 390, 651, 652, 653, 654, 655, 656, 657, 658, 659, 660, 661, 662, 663, 664
665, 666, 667, 668, 669, 670, 671, 672, 673, 674, 675, 676, 677, 678, 679, 680
681, 682, 683, 684, 685, 686, 687, 688, 689, 690, 691, 692, 693, 694, 695, 696
697, 698, 699, 700, 701, 702, 703, 704, 705, 706, 707, 708, 709, 710, 711, 712
713, 714, 715, 976, 977, 978, 979, 980, 981, 982, 983, 984, 985, 986, 987, 988
989, 990, 991, 992, 993, 994, 995, 996, 997, 998, 999, 1000, 1001, 1002, 1003, 1004
1005, 1006, 1007, 1008, 1009, 1010, 1011, 1012, 1013, 1014, 1015, 1016, 1017, 1018, 1019, 1020
1021, 1022, 1023, 1024, 1025, 1026, 1027, 1028, 1029, 1030, 1031, 1032, 1033, 1034, 1035, 1036
1037, 1038, 1039, 1040, 1301, 1302, 1303, 1304, 1305, 1306, 1307, 1308, 1309, 1310, 1311, 1312
1313, 1314, 1315, 1316, 1317, 1318, 1319, 1320, 1321, 1322, 1323, 1324, 1325, 1326, 1327, 1328
1329, 1330, 1331, 1332, 1333, 1334, 1335, 1336, 1337, 1338, 1339, 1340, 1341, 1342, 1343, 1344
1345, 1346, 1347, 1348, 1349, 1350, 1351, 1352, 1353, 1354, 1355, 1356, 1357, 1358, 1359, 1360
1361, 1362, 1363, 1364, 1365, 1626, 1627, 1628, 1629, 1630, 1631, 1632, 1633, 1634, 1635, 1636
1637, 1638, 1639, 1640, 1641, 1642, 1643, 1644, 1645, 1646, 1647, 1648, 1649, 1650, 1651, 1652
1653, 1654, 1655, 1656, 1657, 1658, 1659, 1660, 1661, 1662, 1663, 1664, 1665, 1666, 1667, 1668
1669, 1670, 1671, 1672, 1673, 1674, 1675, 1676, 1677, 1678, 1679, 1680, 1681, 1682, 1683, 1684
1685, 1686, 1687, 1688, 1689, 1690, 1951, 1952, 1953, 1954, 1955, 1956, 1957, 1958, 1959, 1960
1961, 1962, 1963, 1964, 1965, 1966, 1967, 1968, 1969, 1970, 1971, 1972, 1973, 1974, 1975, 1976
1977, 1978, 1979, 1980, 1981, 1982, 1983, 1984, 1985, 1986, 1987, 1988, 1989, 1990, 1991, 1992
1993, 1994, 1995, 1996, 1997, 1998, 1999, 2000, 2001, 2002, 2003, 2004, 2005, 2006, 2007, 2008
2009, 2010, 2011, 2012, 2013, 2014, 2015, 2276, 2277, 2278, 2279, 2280, 2281, 2282, 2283, 2284
2285, 2286, 2287, 2288, 2289, 2290, 2291, 2292, 2293, 2294, 2295, 2296, 2297, 2298, 2299, 2300
2301, 2302, 2303, 2304, 2305, 2306, 2307, 2308, 2309, 2310, 2311, 2312, 2313, 2314, 2315, 2316
2317, 2318, 2319, 2320, 2321, 2322, 2323, 2324, 2325, 2326, 2327, 2328, 2329, 2330, 2331, 2332
2333, 2334, 2335, 2336, 2337, 2338, 2339, 2340, 2601, 2602, 2603, 2604, 2605, 2606, 2607, 2608
2609, 2610, 2611, 2612, 2613, 2614, 2615, 2616, 2617, 2618, 2619, 2620, 2621, 2622, 2623, 2624
2625, 2626, 2627, 2628, 2629, 2630, 2631, 2632, 2633, 2634, 2635, 2636, 2637, 2638, 2639, 2640
2641, 2642, 2643, 2644, 2645, 2646, 2647, 2648, 2649, 2650, 2651, 2652, 2653, 2654, 2655, 2656
2657, 2658, 2659, 2660, 2661, 2662, 2663, 2664, 2665
*NSET, NSET=ZMIN
1, 2, 3, 4, 5, 6, 7, 8, 9, 10, 11, 12, 13, 14, 15, 16
17, 18, 19, 20, 21, 22, 23, 24, 25, 26, 27, 28, 29, 30, 31, 32
33, 34, 35, 36, 37, 38, 39, 40, 41, 42, 43, 44, 45, 46, 47, 48
49, 50, 51, 52, 53, 54, 55, 56, 57, 58, 59, 60, 61, 62, 63, 64
65, 66, 67, 68, 69, 70, 71, 72, 73, 74, 75, 76, 77, 78, 79, 80
81, 82, 83, 84, 85, 86, 87, 88, 89, 90, 91, 92, 93, 94, 95, 96
97, 98, 99, 100, 101, 102, 103, 104, 105, 106, 107, 108, 109, 110, 111, 112
113, 114, 115, 116, 117, 118, 119, 120, 121, 122, 123, 124, 125, 126, 127, 128
129, 130, 131, 132, 133, 134, 135, 136, 137, 138, 139, 140, 141, 142, 143, 144
145, 146, 147, 148, 149, 150, 151, 152, 153, 154, 155, 156, 157, 158, 159, 160
161, 162, 163, 164, 165, 166, 167, 168, 169, 170, 171, 172, 173, 174, 175, 176
177, 178, 179, 180, 181, 182, 183, 184, 185, 186, 187, 188, 189, 190, 191, 192
193, 194, 195, 196, 197, 198, 199, 200, 201, 202, 203, 204, 205, 206, 207, 208
209, 210, 211, 212, 213, 214, 215, 216, 217, 218, 219, 220, 221, 222, 223, 224
225, 226, 227, 228, 229, 230, 231, 232, 233, 234, 235, 236, 237, 238, 239, 240
241, 242, 243, 244, 245, 246, 247, 248, 249, 250, 251, 252, 253, 254, 255, 256
257, 258, 259, 260, 261, 262, 263, 264, 265, 266, 267, 268, 269, 270, 271, 272
273, 274, 275, 276, 277, 278, 279, 280, 281, 282, 283, 284, 285, 286, 287, 288
289, 290, 291, 292, 293, 294, 295, 296, 297, 298, 299, 300, 301, 302, 303, 304
305, 306, 307, 308, 309, 310, 311, 312, 313, 314, 315, 316, 317, 318, 319, 320
321, 322, 323, 324, 325
*NSET, NSET=XMAX
65, 130, 195, 260, 325, 390, 455, 520, 585, 650, 715, 780, 845, 910, 975, 1040
1105, 1170, 1235, 1300, 1365, 1430, 1495, 1560, 1625, 1690, 1755, 1820, 1885, 1950, 2015, 2080
2145, 2210, 2275, 2340, 2405, 2470, 2535, 2600, 2665, 2730, 2795, 2860, 2925
*ELSET, ELSET=PROBE
864
*SOLID SECTION, ELSET=EALL, MATERIAL=VALIDATION
*MATERIAL, NAME=VALIDATION
*ELASTIC
1.0E9, 0.25
*DENSITY
1000.
*BOUNDARY
XMIN, 1, 3, 0.
*STEP
*STATIC
*CLOAD
65, 3, -7.8125
130, 3, -15.625
195, 3, -15.625
260, 3, -15.625
325, 3, -7.8125
390, 3, -15.625
455, 3, -31.25
520, 3, -31.25
585, 3, -31.25
650, 3, -15.625
715, 3, -15.625
780, 3, -31.25
845, 3, -31.25
910, 3, -31.25
975, 3, -15.625
1040, 3, -15.625
1105, 3, -31.25
1170, 3, -31.25
1235, 3, -31.25
1300, 3, -15.625
1365, 3, -15.625
1430, 3, -31.25
1495, 3, -31.25
1560, 3, -31.25
1625, 3, -15.625
1690, 3, -15.625
1755, 3, -31.25
1820, 3, -31.25
1885, 3, -31.25
1950, 3, -15.625
2015, 3, -15.625
2080, 3, -31.25
2145, 3, -31.25
2210, 3, -31.25
2275, 3, -15.625
2340, 3, -15.625
2405, 3, -31.25
2470, 3, -31.25
2535, 3, -31.25
2600, 3, -15.625
2665, 3, -7.8125
2730, 3, -15.625
2795, 3, -15.625
2860, 3, -15.625
2925, 3, -7.8125
*NODE PRINT, NSET=XMAX
U
*NODE PRINT, NSET=XMIN, TOTALS=YES
RF
*EL PRINT, ELSET=PROBE
S
*END STEP
