** SpjutSim FEA independent reference: notched-prism-stress
** Generated by tools/generate-calculix-reference.py; SI units.
*NODE
1, 0, 0, 0
2, 0.05, 0, 0
3, 0.1, 0, 0
4, 0.15, 0, 0
5, 0.2, 0, 0
6, 0.25, 0, 0
7, 0.3, 0, 0
8, 0.35, 0, 0
9, 0.4, 0, 0
10, 0.45, 0, 0
11, 0.5, 0, 0
12, 0.55, 0, 0
13, 0.6, 0, 0
14, 0.65, 0, 0
15, 0.7, 0, 0
16, 0.75, 0, 0
17, 0.8, 0, 0
18, 0.85, 0, 0
19, 0.9, 0, 0
20, 0.95, 0, 0
21, 1, 0, 0
22, 1.05, 0, 0
23, 1.1, 0, 0
24, 1.15, 0, 0
25, 1.2, 0, 0
26, 1.25, 0, 0
27, 1.3, 0, 0
28, 1.35, 0, 0
29, 1.4, 0, 0
30, 1.45, 0, 0
31, 1.5, 0, 0
32, 1.55, 0, 0
33, 1.6, 0, 0
34, 1.65, 0, 0
35, 1.7, 0, 0
36, 1.75, 0, 0
37, 1.8, 0, 0
38, 1.85, 0, 0
39, 1.9, 0, 0
40, 1.95, 0, 0
41, 2, 0, 0
42, 2.05, 0, 0
43, 2.1, 0, 0
44, 2.15, 0, 0
45, 2.2, 0, 0
46, 2.25, 0, 0
47, 2.3, 0, 0
48, 2.35, 0, 0
49, 2.4, 0, 0
50, 2.45, 0, 0
51, 2.5, 0, 0
52, 2.55, 0, 0
53, 2.6, 0, 0
54, 2.65, 0, 0
55, 2.7, 0, 0
56, 2.75, 0, 0
57, 2.8, 0, 0
58, 2.85, 0, 0
59, 2.9, 0, 0
60, 2.95, 0, 0
61, 3, 0, 0
62, 0, 0.05, 0
63, 0.05, 0.05, 0
64, 0.1, 0.05, 0
65, 0.15, 0.05, 0
66, 0.2, 0.05, 0
67, 0.25, 0.05, 0
68, 0.3, 0.05, 0
69, 0.35, 0.05, 0
70, 0.4, 0.05, 0
71, 0.45, 0.05, 0
72, 0.5, 0.05, 0
73, 0.55, 0.05, 0
74, 0.6, 0.05, 0
75, 0.65, 0.05, 0
76, 0.7, 0.05, 0
77, 0.75, 0.05, 0
78, 0.8, 0.05, 0
79, 0.85, 0.05, 0
80, 0.9, 0.05, 0
81, 0.95, 0.05, 0
82, 1, 0.05, 0
83, 1.05, 0.05, 0
84, 1.1, 0.05, 0
85, 1.15, 0.05, 0
86, 1.2, 0.05, 0
87, 1.25, 0.05, 0
88, 1.3, 0.05, 0
89, 1.35, 0.05, 0
90, 1.4, 0.05, 0
91, 1.45, 0.05, 0
92, 1.5, 0.05, 0
93, 1.55, 0.05, 0
94, 1.6, 0.05, 0
95, 1.65, 0.05, 0
96, 1.7, 0.05, 0
97, 1.75, 0.05, 0
98, 1.8, 0.05, 0
99, 1.85, 0.05, 0
100, 1.9, 0.05, 0
101, 1.95, 0.05, 0
102, 2, 0.05, 0
103, 2.05, 0.05, 0
104, 2.1, 0.05, 0
105, 2.15, 0.05, 0
106, 2.2, 0.05, 0
107, 2.25, 0.05, 0
108, 2.3, 0.05, 0
109, 2.35, 0.05, 0
110, 2.4, 0.05, 0
111, 2.45, 0.05, 0
112, 2.5, 0.05, 0
113, 2.55, 0.05, 0
114, 2.6, 0.05, 0
115, 2.65, 0.05, 0
116, 2.7, 0.05, 0
117, 2.75, 0.05, 0
118, 2.8, 0.05, 0
119, 2.85, 0.05, 0
120, 2.9, 0.05, 0
121, 2.95, 0.05, 0
122, 3, 0.05, 0
123, 0, 0.1, 0
124, 0.05, 0.1, 0
125, 0.1, 0.1, 0
126, 0.15, 0.1, 0
127, 0.2, 0.1, 0
128, 0.25, 0.1, 0
129, 0.3, 0.1, 0
130, 0.35, 0.1, 0
131, 0.4, 0.1, 0
132, 0.45, 0.1, 0
133, 0.5, 0.1, 0
134, 0.55, 0.1, 0
135, 0.6, 0.1, 0
136, 0.65, 0.1, 0
137, 0.7, 0.1, 0
138, 0.75, 0.1, 0
139, 0.8, 0.1, 0
140, 0.85, 0.1, 0
141, 0.9, 0.1, 0
142, 0.95, 0.1, 0
143, 1, 0.1, 0
144, 1.05, 0.1, 0
145, 1.1, 0.1, 0
146, 1.15, 0.1, 0
147, 1.2, 0.1, 0
148, 1.25, 0.1, 0
149, 1.3, 0.1, 0
150, 1.35, 0.1, 0
151, 1.4, 0.1, 0
152, 1.45, 0.1, 0
153, 1.5, 0.1, 0
154, 1.55, 0.1, 0
155, 1.6, 0.1, 0
156, 1.65, 0.1, 0
157, 1.7, 0.1, 0
158, 1.75, 0.1, 0
159, 1.8, 0.1, 0
160, 1.85, 0.1, 0
161, 1.9, 0.1, 0
162, 1.95, 0.1, 0
163, 2, 0.1, 0
164, 2.05, 0.1, 0
165, 2.1, 0.1, 0
166, 2.15, 0.1, 0
167, 2.2, 0.1, 0
168, 2.25, 0.1, 0
169, 2.3, 0.1, 0
170, 2.35, 0.1, 0
171, 2.4, 0.1, 0
172, 2.45, 0.1, 0
173, 2.5, 0.1, 0
174, 2.55, 0.1, 0
175, 2.6, 0.1, 0
176, 2.65, 0.1, 0
177, 2.7, 0.1, 0
178, 2.75, 0.1, 0
179, 2.8, 0.1, 0
180, 2.85, 0.1, 0
181, 2.9, 0.1, 0
182, 2.95, 0.1, 0
183, 3, 0.1, 0
184, 0, 0.15, 0
185, 0.05, 0.15, 0
186, 0.1, 0.15, 0
187, 0.15, 0.15, 0
188, 0.2, 0.15, 0
189, 0.25, 0.15, 0
190, 0.3, 0.15, 0
191, 0.35, 0.15, 0
192, 0.4, 0.15, 0
193, 0.45, 0.15, 0
194, 0.5, 0.15, 0
195, 0.55, 0.15, 0
196, 0.6, 0.15, 0
197, 0.65, 0.15, 0
198, 0.7, 0.15, 0
199, 0.75, 0.15, 0
200, 0.8, 0.15, 0
201, 0.85, 0.15, 0
202, 0.9, 0.15, 0
203, 0.95, 0.15, 0
204, 1, 0.15, 0
205, 1.05, 0.15, 0
206, 1.1, 0.15, 0
207, 1.15, 0.15, 0
208, 1.2, 0.15, 0
209, 1.25, 0.15, 0
210, 1.3, 0.15, 0
211, 1.35, 0.15, 0
212, 1.4, 0.15, 0
213, 1.45, 0.15, 0
214, 1.5, 0.15, 0
215, 1.55, 0.15, 0
216, 1.6, 0.15, 0
217, 1.65, 0.15, 0
218, 1.7, 0.15, 0
219, 1.75, 0.15, 0
220, 1.8, 0.15, 0
221, 1.85, 0.15, 0
222, 1.9, 0.15, 0
223, 1.95, 0.15, 0
224, 2, 0.15, 0
225, 2.05, 0.15, 0
226, 2.1, 0.15, 0
227, 2.15, 0.15, 0
228, 2.2, 0.15, 0
229, 2.25, 0.15, 0
230, 2.3, 0.15, 0
231, 2.35, 0.15, 0
232, 2.4, 0.15, 0
233, 2.45, 0.15, 0
234, 2.5, 0.15, 0
235, 2.55, 0.15, 0
236, 2.6, 0.15, 0
237, 2.65, 0.15, 0
238, 2.7, 0.15, 0
239, 2.75, 0.15, 0
240, 2.8, 0.15, 0
241, 2.85, 0.15, 0
242, 2.9, 0.15, 0
243, 2.95, 0.15, 0
244, 3, 0.15, 0
245, 0, 0.2, 0
246, 0.05, 0.2, 0
247, 0.1, 0.2, 0
248, 0.15, 0.2, 0
249, 0.2, 0.2, 0
250, 0.25, 0.2, 0
251, 0.3, 0.2, 0
252, 0.35, 0.2, 0
253, 0.4, 0.2, 0
254, 0.45, 0.2, 0
255, 0.5, 0.2, 0
256, 0.55, 0.2, 0
257, 0.6, 0.2, 0
258, 0.65, 0.2, 0
259, 0.7, 0.2, 0
260, 0.75, 0.2, 0
261, 0.8, 0.2, 0
262, 0.85, 0.2, 0
263, 0.9, 0.2, 0
264, 0.95, 0.2, 0
265, 1, 0.2, 0
266, 1.05, 0.2, 0
267, 1.1, 0.2, 0
268, 1.15, 0.2, 0
269, 1.2, 0.2, 0
270, 1.25, 0.2, 0
271, 1.3, 0.2, 0
272, 1.35, 0.2, 0
273, 1.4, 0.2, 0
274, 1.45, 0.2, 0
275, 1.5, 0.2, 0
276, 1.55, 0.2, 0
277, 1.6, 0.2, 0
278, 1.65, 0.2, 0
279, 1.7, 0.2, 0
280, 1.75, 0.2, 0
281, 1.8, 0.2, 0
282, 1.85, 0.2, 0
283, 1.9, 0.2, 0
284, 1.95, 0.2, 0
285, 2, 0.2, 0
286, 2.05, 0.2, 0
287, 2.1, 0.2, 0
288, 2.15, 0.2, 0
289, 2.2, 0.2, 0
290, 2.25, 0.2, 0
291, 2.3, 0.2, 0
292, 2.35, 0.2, 0
293, 2.4, 0.2, 0
294, 2.45, 0.2, 0
295, 2.5, 0.2, 0
296, 2.55, 0.2, 0
297, 2.6, 0.2, 0
298, 2.65, 0.2, 0
299, 2.7, 0.2, 0
300, 2.75, 0.2, 0
301, 2.8, 0.2, 0
302, 2.85, 0.2, 0
303, 2.9, 0.2, 0
304, 2.95, 0.2, 0
305, 3, 0.2, 0
306, 0, 0.25, 0
307, 0.05, 0.25, 0
308, 0.1, 0.25, 0
309, 0.15, 0.25, 0
310, 0.2, 0.25, 0
311, 0.25, 0.25, 0
312, 0.3, 0.25, 0
313, 0.35, 0.25, 0
314, 0.4, 0.25, 0
315, 0.45, 0.25, 0
316, 0.5, 0.25, 0
317, 0.55, 0.25, 0
318, 0.6, 0.25, 0
319, 0.65, 0.25, 0
320, 0.7, 0.25, 0
321, 0.75, 0.25, 0
322, 0.8, 0.25, 0
323, 0.85, 0.25, 0
324, 0.9, 0.25, 0
325, 0.95, 0.25, 0
326, 1, 0.25, 0
327, 1.05, 0.25, 0
328, 1.1, 0.25, 0
329, 1.15, 0.25, 0
330, 1.2, 0.25, 0
331, 1.25, 0.25, 0
332, 1.3, 0.25, 0
333, 1.35, 0.25, 0
334, 1.4, 0.25, 0
335, 1.45, 0.25, 0
336, 1.5, 0.25, 0
337, 1.55, 0.25, 0
338, 1.6, 0.25, 0
339, 1.65, 0.25, 0
340, 1.7, 0.25, 0
341, 1.75, 0.25, 0
342, 1.8, 0.25, 0
343, 1.85, 0.25, 0
344, 1.9, 0.25, 0
345, 1.95, 0.25, 0
346, 2, 0.25, 0
347, 2.05, 0.25, 0
348, 2.1, 0.25, 0
349, 2.15, 0.25, 0
350, 2.2, 0.25, 0
351, 2.25, 0.25, 0
352, 2.3, 0.25, 0
353, 2.35, 0.25, 0
354, 2.4, 0.25, 0
355, 2.45, 0.25, 0
356, 2.5, 0.25, 0
357, 2.55, 0.25, 0
358, 2.6, 0.25, 0
359, 2.65, 0.25, 0
360, 2.7, 0.25, 0
361, 2.75, 0.25, 0
362, 2.8, 0.25, 0
363, 2.85, 0.25, 0
364, 2.9, 0.25, 0
365, 2.95, 0.25, 0
366, 3, 0.25, 0
367, 0, 0.3, 0
368, 0.05, 0.3, 0
369, 0.1, 0.3, 0
370, 0.15, 0.3, 0
371, 0.2, 0.3, 0
372, 0.25, 0.3, 0
373, 0.3, 0.3, 0
374, 0.35, 0.3, 0
375, 0.4, 0.3, 0
376, 0.45, 0.3, 0
377, 0.5, 0.3, 0
378, 0.55, 0.3, 0
379, 0.6, 0.3, 0
380, 0.65, 0.3, 0
381, 0.7, 0.3, 0
382, 0.75, 0.3, 0
383, 0.8, 0.3, 0
384, 0.85, 0.3, 0
385, 0.9, 0.3, 0
386, 0.95, 0.3, 0
387, 1, 0.3, 0
388, 1.05, 0.3, 0
389, 1.1, 0.3, 0
390, 1.15, 0.3, 0
391, 1.2, 0.3, 0
392, 1.25, 0.3, 0
393, 1.3, 0.3, 0
394, 1.35, 0.3, 0
395, 1.4, 0.3, 0
396, 1.45, 0.3, 0
397, 1.5, 0.3, 0
398, 1.55, 0.3, 0
399, 1.6, 0.3, 0
400, 1.65, 0.3, 0
401, 1.7, 0.3, 0
402, 1.75, 0.3, 0
403, 1.8, 0.3, 0
404, 1.85, 0.3, 0
405, 1.9, 0.3, 0
406, 1.95, 0.3, 0
407, 2, 0.3, 0
408, 2.05, 0.3, 0
409, 2.1, 0.3, 0
410, 2.15, 0.3, 0
411, 2.2, 0.3, 0
412, 2.25, 0.3, 0
413, 2.3, 0.3, 0
414, 2.35, 0.3, 0
415, 2.4, 0.3, 0
416, 2.45, 0.3, 0
417, 2.5, 0.3, 0
418, 2.55, 0.3, 0
419, 2.6, 0.3, 0
420, 2.65, 0.3, 0
421, 2.7, 0.3, 0
422, 2.75, 0.3, 0
423, 2.8, 0.3, 0
424, 2.85, 0.3, 0
425, 2.9, 0.3, 0
426, 2.95, 0.3, 0
427, 3, 0.3, 0
428, 0, 0.35, 0
429, 0.05, 0.35, 0
430, 0.1, 0.35, 0
431, 0.15, 0.35, 0
432, 0.2, 0.35, 0
433, 0.25, 0.35, 0
434, 0.3, 0.35, 0
435, 0.35, 0.35, 0
436, 0.4, 0.35, 0
437, 0.45, 0.35, 0
438, 0.5, 0.35, 0
439, 0.55, 0.35, 0
440, 0.6, 0.35, 0
441, 0.65, 0.35, 0
442, 0.7, 0.35, 0
443, 0.75, 0.35, 0
444, 0.8, 0.35, 0
445, 0.85, 0.35, 0
446, 0.9, 0.35, 0
447, 0.95, 0.35, 0
448, 1, 0.35, 0
449, 1.05, 0.35, 0
450, 1.1, 0.35, 0
451, 1.15, 0.35, 0
452, 1.2, 0.35, 0
453, 1.25, 0.35, 0
454, 1.3, 0.35, 0
455, 1.35, 0.35, 0
456, 1.4, 0.35, 0
457, 1.45, 0.35, 0
458, 1.5, 0.35, 0
459, 1.55, 0.35, 0
460, 1.6, 0.35, 0
461, 1.65, 0.35, 0
462, 1.7, 0.35, 0
463, 1.75, 0.35, 0
464, 1.8, 0.35, 0
465, 1.85, 0.35, 0
466, 1.9, 0.35, 0
467, 1.95, 0.35, 0
468, 2, 0.35, 0
469, 2.05, 0.35, 0
470, 2.1, 0.35, 0
471, 2.15, 0.35, 0
472, 2.2, 0.35, 0
473, 2.25, 0.35, 0
474, 2.3, 0.35, 0
475, 2.35, 0.35, 0
476, 2.4, 0.35, 0
477, 2.45, 0.35, 0
478, 2.5, 0.35, 0
479, 2.55, 0.35, 0
480, 2.6, 0.35, 0
481, 2.65, 0.35, 0
482, 2.7, 0.35, 0
483, 2.75, 0.35, 0
484, 2.8, 0.35, 0
485, 2.85, 0.35, 0
486, 2.9, 0.35, 0
487, 2.95, 0.35, 0
488, 3, 0.35, 0
489, 0, 0.4, 0
490, 0.05, 0.4, 0
491, 0.1, 0.4, 0
492, 0.15, 0.4, 0
493, 0.2, 0.4, 0
494, 0.25, 0.4, 0
495, 0.3, 0.4, 0
496, 0.35, 0.4, 0
497, 0.4, 0.4, 0
498, 0.45, 0.4, 0
499, 0.5, 0.4, 0
500, 0.55, 0.4, 0
501, 0.6, 0.4, 0
502, 0.65, 0.4, 0
503, 0.7, 0.4, 0
504, 0.75, 0.4, 0
505, 0.8, 0.4, 0
506, 0.85, 0.4, 0
507, 0.9, 0.4, 0
508, 0.95, 0.4, 0
509, 1, 0.4, 0
510, 1.05, 0.4, 0
511, 1.1, 0.4, 0
512, 1.15, 0.4, 0
513, 1.2, 0.4, 0
514, 1.25, 0.4, 0
515, 1.3, 0.4, 0
516, 1.35, 0.4, 0
517, 1.4, 0.4, 0
518, 1.45, 0.4, 0
519, 1.5, 0.4, 0
520, 1.55, 0.4, 0
521, 1.6, 0.4, 0
522, 1.65, 0.4, 0
523, 1.7, 0.4, 0
524, 1.75, 0.4, 0
525, 1.8, 0.4, 0
526, 1.85, 0.4, 0
527, 1.9, 0.4, 0
528, 1.95, 0.4, 0
529, 2, 0.4, 0
530, 2.05, 0.4, 0
531, 2.1, 0.4, 0
532, 2.15, 0.4, 0
533, 2.2, 0.4, 0
534, 2.25, 0.4, 0
535, 2.3, 0.4, 0
536, 2.35, 0.4, 0
537, 2.4, 0.4, 0
538, 2.45, 0.4, 0
539, 2.5, 0.4, 0
540, 2.55, 0.4, 0
541, 2.6, 0.4, 0
542, 2.65, 0.4, 0
543, 2.7, 0.4, 0
544, 2.75, 0.4, 0
545, 2.8, 0.4, 0
546, 2.85, 0.4, 0
547, 2.9, 0.4, 0
548, 2.95, 0.4, 0
549, 3, 0.4, 0
550, 0, 0.45, 0
551, 0.05, 0.45, 0
552, 0.1, 0.45, 0
553, 0.15, 0.45, 0
554, 0.2, 0.45, 0
555, 0.25, 0.45, 0
556, 0.3, 0.45, 0
557, 0.35, 0.45, 0
558, 0.4, 0.45, 0
559, 0.45, 0.45, 0
560, 0.5, 0.45, 0
561, 0.55, 0.45, 0
562, 0.6, 0.45, 0
563, 0.65, 0.45, 0
564, 0.7, 0.45, 0
565, 0.75, 0.45, 0
566, 0.8, 0.45, 0
567, 0.85, 0.45, 0
568, 0.9, 0.45, 0
569, 0.95, 0.45, 0
570, 1, 0.45, 0
571, 1.05, 0.45, 0
572, 1.1, 0.45, 0
573, 1.15, 0.45, 0
574, 1.2, 0.45, 0
575, 1.25, 0.45, 0
576, 1.3, 0.45, 0
577, 1.35, 0.45, 0
578, 1.4, 0.45, 0
579, 1.45, 0.45, 0
580, 1.5, 0.45, 0
581, 1.55, 0.45, 0
582, 1.6, 0.45, 0
583, 1.65, 0.45, 0
584, 1.7, 0.45, 0
585, 1.75, 0.45, 0
586, 1.8, 0.45, 0
587, 1.85, 0.45, 0
588, 1.9, 0.45, 0
589, 1.95, 0.45, 0
590, 2, 0.45, 0
591, 2.05, 0.45, 0
592, 2.1, 0.45, 0
593, 2.15, 0.45, 0
594, 2.2, 0.45, 0
595, 2.25, 0.45, 0
596, 2.3, 0.45, 0
597, 2.35, 0.45, 0
598, 2.4, 0.45, 0
599, 2.45, 0.45, 0
600, 2.5, 0.45, 0
601, 2.55, 0.45, 0
602, 2.6, 0.45, 0
603, 2.65, 0.45, 0
604, 2.7, 0.45, 0
605, 2.75, 0.45, 0
606, 2.8, 0.45, 0
607, 2.85, 0.45, 0
608, 2.9, 0.45, 0
609, 2.95, 0.45, 0
610, 3, 0.45, 0
611, 0, 0.5, 0
612, 0.05, 0.5, 0
613, 0.1, 0.5, 0
614, 0.15, 0.5, 0
615, 0.2, 0.5, 0
616, 0.25, 0.5, 0
617, 0.3, 0.5, 0
618, 0.35, 0.5, 0
619, 0.4, 0.5, 0
620, 0.45, 0.5, 0
621, 0.5, 0.5, 0
622, 0.55, 0.5, 0
623, 0.6, 0.5, 0
624, 0.65, 0.5, 0
625, 0.7, 0.5, 0
626, 0.75, 0.5, 0
627, 0.8, 0.5, 0
628, 0.85, 0.5, 0
629, 0.9, 0.5, 0
630, 0.95, 0.5, 0
631, 1, 0.5, 0
632, 1.05, 0.5, 0
633, 1.1, 0.5, 0
634, 1.15, 0.5, 0
635, 1.2, 0.5, 0
636, 1.25, 0.5, 0
637, 1.3, 0.5, 0
638, 1.35, 0.5, 0
639, 1.4, 0.5, 0
640, 1.45, 0.5, 0
641, 1.5, 0.5, 0
642, 1.55, 0.5, 0
643, 1.6, 0.5, 0
644, 1.65, 0.5, 0
645, 1.7, 0.5, 0
646, 1.75, 0.5, 0
647, 1.8, 0.5, 0
648, 1.85, 0.5, 0
649, 1.9, 0.5, 0
650, 1.95, 0.5, 0
651, 2, 0.5, 0
652, 2.05, 0.5, 0
653, 2.1, 0.5, 0
654, 2.15, 0.5, 0
655, 2.2, 0.5, 0
656, 2.25, 0.5, 0
657, 2.3, 0.5, 0
658, 2.35, 0.5, 0
659, 2.4, 0.5, 0
660, 2.45, 0.5, 0
661, 2.5, 0.5, 0
662, 2.55, 0.5, 0
663, 2.6, 0.5, 0
664, 2.65, 0.5, 0
665, 2.7, 0.5, 0
666, 2.75, 0.5, 0
667, 2.8, 0.5, 0
668, 2.85, 0.5, 0
669, 2.9, 0.5, 0
670, 2.95, 0.5, 0
671, 3, 0.5, 0
672, 0, 0.55, 0
673, 0.05, 0.55, 0
674, 0.1, 0.55, 0
675, 0.15, 0.55, 0
676, 0.2, 0.55, 0
677, 0.25, 0.55, 0
678, 0.3, 0.55, 0
679, 0.35, 0.55, 0
680, 0.4, 0.55, 0
681, 0.45, 0.55, 0
682, 0.5, 0.55, 0
683, 0.55, 0.55, 0
684, 0.6, 0.55, 0
685, 0.65, 0.55, 0
686, 0.7, 0.55, 0
687, 0.75, 0.55, 0
688, 0.8, 0.55, 0
689, 0.85, 0.55, 0
690, 0.9, 0.55, 0
691, 0.95, 0.55, 0
692, 1, 0.55, 0
693, 1.05, 0.55, 0
694, 1.1, 0.55, 0
695, 1.15, 0.55, 0
696, 1.2, 0.55, 0
697, 1.25, 0.55, 0
698, 1.3, 0.55, 0
699, 1.35, 0.55, 0
700, 1.4, 0.55, 0
701, 1.45, 0.55, 0
702, 1.5, 0.55, 0
703, 1.55, 0.55, 0
704, 1.6, 0.55, 0
705, 1.65, 0.55, 0
706, 1.7, 0.55, 0
707, 1.75, 0.55, 0
708, 1.8, 0.55, 0
709, 1.85, 0.55, 0
710, 1.9, 0.55, 0
711, 1.95, 0.55, 0
712, 2, 0.55, 0
713, 2.05, 0.55, 0
714, 2.1, 0.55, 0
715, 2.15, 0.55, 0
716, 2.2, 0.55, 0
717, 2.25, 0.55, 0
718, 2.3, 0.55, 0
719, 2.35, 0.55, 0
720, 2.4, 0.55, 0
721, 2.45, 0.55, 0
722, 2.5, 0.55, 0
723, 2.55, 0.55, 0
724, 2.6, 0.55, 0
725, 2.65, 0.55, 0
726, 2.7, 0.55, 0
727, 2.75, 0.55, 0
728, 2.8, 0.55, 0
729, 2.85, 0.55, 0
730, 2.9, 0.55, 0
731, 2.95, 0.55, 0
732, 3, 0.55, 0
733, 0, 0.6, 0
734, 0.05, 0.6, 0
735, 0.1, 0.6, 0
736, 0.15, 0.6, 0
737, 0.2, 0.6, 0
738, 0.25, 0.6, 0
739, 0.3, 0.6, 0
740, 0.35, 0.6, 0
741, 0.4, 0.6, 0
742, 0.45, 0.6, 0
743, 0.5, 0.6, 0
744, 0.55, 0.6, 0
745, 0.6, 0.6, 0
746, 0.65, 0.6, 0
747, 0.7, 0.6, 0
748, 0.75, 0.6, 0
749, 0.8, 0.6, 0
750, 0.85, 0.6, 0
751, 0.9, 0.6, 0
752, 0.95, 0.6, 0
753, 1, 0.6, 0
754, 1.05, 0.6, 0
755, 1.1, 0.6, 0
756, 1.15, 0.6, 0
757, 1.2, 0.6, 0
758, 1.25, 0.6, 0
759, 1.3, 0.6, 0
760, 1.35, 0.6, 0
761, 1.4, 0.6, 0
762, 1.45, 0.6, 0
763, 1.5, 0.6, 0
764, 1.55, 0.6, 0
765, 1.6, 0.6, 0
766, 1.65, 0.6, 0
767, 1.7, 0.6, 0
768, 1.75, 0.6, 0
769, 1.8, 0.6, 0
770, 1.85, 0.6, 0
771, 1.9, 0.6, 0
772, 1.95, 0.6, 0
773, 2, 0.6, 0
774, 2.05, 0.6, 0
775, 2.1, 0.6, 0
776, 2.15, 0.6, 0
777, 2.2, 0.6, 0
778, 2.25, 0.6, 0
779, 2.3, 0.6, 0
780, 2.35, 0.6, 0
781, 2.4, 0.6, 0
782, 2.45, 0.6, 0
783, 2.5, 0.6, 0
784, 2.55, 0.6, 0
785, 2.6, 0.6, 0
786, 2.65, 0.6, 0
787, 2.7, 0.6, 0
788, 2.75, 0.6, 0
789, 2.8, 0.6, 0
790, 2.85, 0.6, 0
791, 2.9, 0.6, 0
792, 2.95, 0.6, 0
793, 3, 0.6, 0
794, 0, 0.65, 0
795, 0.05, 0.65, 0
796, 0.1, 0.65, 0
797, 0.15, 0.65, 0
798, 0.2, 0.65, 0
799, 0.25, 0.65, 0
800, 0.3, 0.65, 0
801, 0.35, 0.65, 0
802, 0.4, 0.65, 0
803, 0.45, 0.65, 0
804, 0.5, 0.65, 0
805, 0.55, 0.65, 0
806, 0.6, 0.65, 0
807, 0.65, 0.65, 0
808, 0.7, 0.65, 0
809, 0.75, 0.65, 0
810, 0.8, 0.65, 0
811, 0.85, 0.65, 0
812, 0.9, 0.65, 0
813, 0.95, 0.65, 0
814, 1, 0.65, 0
815, 1.05, 0.65, 0
816, 1.1, 0.65, 0
817, 1.15, 0.65, 0
818, 1.2, 0.65, 0
819, 1.25, 0.65, 0
820, 1.3, 0.65, 0
821, 1.35, 0.65, 0
822, 1.4, 0.65, 0
823, 1.45, 0.65, 0
824, 1.5, 0.65, 0
825, 1.55, 0.65, 0
826, 1.6, 0.65, 0
827, 1.65, 0.65, 0
828, 1.7, 0.65, 0
829, 1.75, 0.65, 0
830, 1.8, 0.65, 0
831, 1.85, 0.65, 0
832, 1.9, 0.65, 0
833, 1.95, 0.65, 0
834, 2, 0.65, 0
835, 2.05, 0.65, 0
836, 2.1, 0.65, 0
837, 2.15, 0.65, 0
838, 2.2, 0.65, 0
839, 2.25, 0.65, 0
840, 2.3, 0.65, 0
841, 2.35, 0.65, 0
842, 2.4, 0.65, 0
843, 2.45, 0.65, 0
844, 2.5, 0.65, 0
845, 2.55, 0.65, 0
846, 2.6, 0.65, 0
847, 2.65, 0.65, 0
848, 2.7, 0.65, 0
849, 2.75, 0.65, 0
850, 2.8, 0.65, 0
851, 2.85, 0.65, 0
852, 2.9, 0.65, 0
853, 2.95, 0.65, 0
854, 3, 0.65, 0
855, 0, 0.7, 0
856, 0.05, 0.7, 0
857, 0.1, 0.7, 0
858, 0.15, 0.7, 0
859, 0.2, 0.7, 0
860, 0.25, 0.7, 0
861, 0.3, 0.7, 0
862, 0.35, 0.7, 0
863, 0.4, 0.7, 0
864, 0.45, 0.7, 0
865, 0.5, 0.7, 0
866, 0.55, 0.7, 0
867, 0.6, 0.7, 0
868, 0.65, 0.7, 0
869, 0.7, 0.7, 0
870, 0.75, 0.7, 0
871, 0.8, 0.7, 0
872, 0.85, 0.7, 0
873, 0.9, 0.7, 0
874, 0.95, 0.7, 0
875, 1, 0.7, 0
876, 1.05, 0.7, 0
877, 1.1, 0.7, 0
878, 1.15, 0.7, 0
879, 1.2, 0.7, 0
880, 1.25, 0.7, 0
881, 1.3, 0.7, 0
882, 1.35, 0.7, 0
883, 1.4, 0.7, 0
884, 1.45, 0.7, 0
885, 1.5, 0.7, 0
886, 1.55, 0.7, 0
887, 1.6, 0.7, 0
888, 1.65, 0.7, 0
889, 1.7, 0.7, 0
890, 1.75, 0.7, 0
891, 1.8, 0.7, 0
892, 1.85, 0.7, 0
893, 1.9, 0.7, 0
894, 1.95, 0.7, 0
895, 2, 0.7, 0
896, 2.05, 0.7, 0
897, 2.1, 0.7, 0
898, 2.15, 0.7, 0
899, 2.2, 0.7, 0
900, 2.25, 0.7, 0
901, 2.3, 0.7, 0
902, 2.35, 0.7, 0
903, 2.4, 0.7, 0
904, 2.45, 0.7, 0
905, 2.5, 0.7, 0
906, 2.55, 0.7, 0
907, 2.6, 0.7, 0
908, 2.65, 0.7, 0
909, 2.7, 0.7, 0
910, 2.75, 0.7, 0
911, 2.8, 0.7, 0
912, 2.85, 0.7, 0
913, 2.9, 0.7, 0
914, 2.95, 0.7, 0
915, 3, 0.7, 0
916, 0, 0.75, 0
917, 0.05, 0.75, 0
918, 0.1, 0.75, 0
919, 0.15, 0.75, 0
920, 0.2, 0.75, 0
921, 0.25, 0.75, 0
922, 0.3, 0.75, 0
923, 0.35, 0.75, 0
924, 0.4, 0.75, 0
925, 0.45, 0.75, 0
926, 0.5, 0.75, 0
927, 0.55, 0.75, 0
928, 0.6, 0.75, 0
929, 0.65, 0.75, 0
930, 0.7, 0.75, 0
931, 0.75, 0.75, 0
932, 0.8, 0.75, 0
933, 0.85, 0.75, 0
934, 0.9, 0.75, 0
935, 0.95, 0.75, 0
936, 1, 0.75, 0
937, 1.05, 0.75, 0
938, 1.1, 0.75, 0
939, 1.15, 0.75, 0
940, 1.2, 0.75, 0
952, 1.8, 0.75, 0
953, 1.85, 0.75, 0
954, 1.9, 0.75, 0
955, 1.95, 0.75, 0
956, 2, 0.75, 0
957, 2.05, 0.75, 0
958, 2.1, 0.75, 0
959, 2.15, 0.75, 0
960, 2.2, 0.75, 0
961, 2.25, 0.75, 0
962, 2.3, 0.75, 0
963, 2.35, 0.75, 0
964, 2.4, 0.75, 0
965, 2.45, 0.75, 0
966, 2.5, 0.75, 0
967, 2.55, 0.75, 0
968, 2.6, 0.75, 0
969, 2.65, 0.75, 0
970, 2.7, 0.75, 0
971, 2.75, 0.75, 0
972, 2.8, 0.75, 0
973, 2.85, 0.75, 0
974, 2.9, 0.75, 0
975, 2.95, 0.75, 0
976, 3, 0.75, 0
977, 0, 0.8, 0
978, 0.05, 0.8, 0
979, 0.1, 0.8, 0
980, 0.15, 0.8, 0
981, 0.2, 0.8, 0
982, 0.25, 0.8, 0
983, 0.3, 0.8, 0
984, 0.35, 0.8, 0
985, 0.4, 0.8, 0
986, 0.45, 0.8, 0
987, 0.5, 0.8, 0
988, 0.55, 0.8, 0
989, 0.6, 0.8, 0
990, 0.65, 0.8, 0
991, 0.7, 0.8, 0
992, 0.75, 0.8, 0
993, 0.8, 0.8, 0
994, 0.85, 0.8, 0
995, 0.9, 0.8, 0
996, 0.95, 0.8, 0
997, 1, 0.8, 0
998, 1.05, 0.8, 0
999, 1.1, 0.8, 0
1000, 1.15, 0.8, 0
1001, 1.2, 0.8, 0
1013, 1.8, 0.8, 0
1014, 1.85, 0.8, 0
1015, 1.9, 0.8, 0
1016, 1.95, 0.8, 0
1017, 2, 0.8, 0
1018, 2.05, 0.8, 0
1019, 2.1, 0.8, 0
1020, 2.15, 0.8, 0
1021, 2.2, 0.8, 0
1022, 2.25, 0.8, 0
1023, 2.3, 0.8, 0
1024, 2.35, 0.8, 0
1025, 2.4, 0.8, 0
1026, 2.45, 0.8, 0
1027, 2.5, 0.8, 0
1028, 2.55, 0.8, 0
1029, 2.6, 0.8, 0
1030, 2.65, 0.8, 0
1031, 2.7, 0.8, 0
1032, 2.75, 0.8, 0
1033, 2.8, 0.8, 0
1034, 2.85, 0.8, 0
1035, 2.9, 0.8, 0
1036, 2.95, 0.8, 0
1037, 3, 0.8, 0
1038, 0, 0.85, 0
1039, 0.05, 0.85, 0
1040, 0.1, 0.85, 0
1041, 0.15, 0.85, 0
1042, 0.2, 0.85, 0
1043, 0.25, 0.85, 0
1044, 0.3, 0.85, 0
1045, 0.35, 0.85, 0
1046, 0.4, 0.85, 0
1047, 0.45, 0.85, 0
1048, 0.5, 0.85, 0
1049, 0.55, 0.85, 0
1050, 0.6, 0.85, 0
1051, 0.65, 0.85, 0
1052, 0.7, 0.85, 0
1053, 0.75, 0.85, 0
1054, 0.8, 0.85, 0
1055, 0.85, 0.85, 0
1056, 0.9, 0.85, 0
1057, 0.95, 0.85, 0
1058, 1, 0.85, 0
1059, 1.05, 0.85, 0
1060, 1.1, 0.85, 0
1061, 1.15, 0.85, 0
1062, 1.2, 0.85, 0
1074, 1.8, 0.85, 0
1075, 1.85, 0.85, 0
1076, 1.9, 0.85, 0
1077, 1.95, 0.85, 0
1078, 2, 0.85, 0
1079, 2.05, 0.85, 0
1080, 2.1, 0.85, 0
1081, 2.15, 0.85, 0
1082, 2.2, 0.85, 0
1083, 2.25, 0.85, 0
1084, 2.3, 0.85, 0
1085, 2.35, 0.85, 0
1086, 2.4, 0.85, 0
1087, 2.45, 0.85, 0
1088, 2.5, 0.85, 0
1089, 2.55, 0.85, 0
1090, 2.6, 0.85, 0
1091, 2.65, 0.85, 0
1092, 2.7, 0.85, 0
1093, 2.75, 0.85, 0
1094, 2.8, 0.85, 0
1095, 2.85, 0.85, 0
1096, 2.9, 0.85, 0
1097, 2.95, 0.85, 0
1098, 3, 0.85, 0
1099, 0, 0.9, 0
1100, 0.05, 0.9, 0
1101, 0.1, 0.9, 0
1102, 0.15, 0.9, 0
1103, 0.2, 0.9, 0
1104, 0.25, 0.9, 0
1105, 0.3, 0.9, 0
1106, 0.35, 0.9, 0
1107, 0.4, 0.9, 0
1108, 0.45, 0.9, 0
1109, 0.5, 0.9, 0
1110, 0.55, 0.9, 0
1111, 0.6, 0.9, 0
1112, 0.65, 0.9, 0
1113, 0.7, 0.9, 0
1114, 0.75, 0.9, 0
1115, 0.8, 0.9, 0
1116, 0.85, 0.9, 0
1117, 0.9, 0.9, 0
1118, 0.95, 0.9, 0
1119, 1, 0.9, 0
1120, 1.05, 0.9, 0
1121, 1.1, 0.9, 0
1122, 1.15, 0.9, 0
1123, 1.2, 0.9, 0
1135, 1.8, 0.9, 0
1136, 1.85, 0.9, 0
1137, 1.9, 0.9, 0
1138, 1.95, 0.9, 0
1139, 2, 0.9, 0
1140, 2.05, 0.9, 0
1141, 2.1, 0.9, 0
1142, 2.15, 0.9, 0
1143, 2.2, 0.9, 0
1144, 2.25, 0.9, 0
1145, 2.3, 0.9, 0
1146, 2.35, 0.9, 0
1147, 2.4, 0.9, 0
1148, 2.45, 0.9, 0
1149, 2.5, 0.9, 0
1150, 2.55, 0.9, 0
1151, 2.6, 0.9, 0
1152, 2.65, 0.9, 0
1153, 2.7, 0.9, 0
1154, 2.75, 0.9, 0
1155, 2.8, 0.9, 0
1156, 2.85, 0.9, 0
1157, 2.9, 0.9, 0
1158, 2.95, 0.9, 0
1159, 3, 0.9, 0
1160, 0, 0.95, 0
1161, 0.05, 0.95, 0
1162, 0.1, 0.95, 0
1163, 0.15, 0.95, 0
1164, 0.2, 0.95, 0
1165, 0.25, 0.95, 0
1166, 0.3, 0.95, 0
1167, 0.35, 0.95, 0
1168, 0.4, 0.95, 0
1169, 0.45, 0.95, 0
1170, 0.5, 0.95, 0
1171, 0.55, 0.95, 0
1172, 0.6, 0.95, 0
1173, 0.65, 0.95, 0
1174, 0.7, 0.95, 0
1175, 0.75, 0.95, 0
1176, 0.8, 0.95, 0
1177, 0.85, 0.95, 0
1178, 0.9, 0.95, 0
1179, 0.95, 0.95, 0
1180, 1, 0.95, 0
1181, 1.05, 0.95, 0
1182, 1.1, 0.95, 0
1183, 1.15, 0.95, 0
1184, 1.2, 0.95, 0
1196, 1.8, 0.95, 0
1197, 1.85, 0.95, 0
1198, 1.9, 0.95, 0
1199, 1.95, 0.95, 0
1200, 2, 0.95, 0
1201, 2.05, 0.95, 0
1202, 2.1, 0.95, 0
1203, 2.15, 0.95, 0
1204, 2.2, 0.95, 0
1205, 2.25, 0.95, 0
1206, 2.3, 0.95, 0
1207, 2.35, 0.95, 0
1208, 2.4, 0.95, 0
1209, 2.45, 0.95, 0
1210, 2.5, 0.95, 0
1211, 2.55, 0.95, 0
1212, 2.6, 0.95, 0
1213, 2.65, 0.95, 0
1214, 2.7, 0.95, 0
1215, 2.75, 0.95, 0
1216, 2.8, 0.95, 0
1217, 2.85, 0.95, 0
1218, 2.9, 0.95, 0
1219, 2.95, 0.95, 0
1220, 3, 0.95, 0
1221, 0, 1, 0
1222, 0.05, 1, 0
1223, 0.1, 1, 0
1224, 0.15, 1, 0
1225, 0.2, 1, 0
1226, 0.25, 1, 0
1227, 0.3, 1, 0
1228, 0.35, 1, 0
1229, 0.4, 1, 0
1230, 0.45, 1, 0
1231, 0.5, 1, 0
1232, 0.55, 1, 0
1233, 0.6, 1, 0
1234, 0.65, 1, 0
1235, 0.7, 1, 0
1236, 0.75, 1, 0
1237, 0.8, 1, 0
1238, 0.85, 1, 0
1239, 0.9, 1, 0
1240, 0.95, 1, 0
1241, 1, 1, 0
1242, 1.05, 1, 0
1243, 1.1, 1, 0
1244, 1.15, 1, 0
1245, 1.2, 1, 0
1257, 1.8, 1, 0
1258, 1.85, 1, 0
1259, 1.9, 1, 0
1260, 1.95, 1, 0
1261, 2, 1, 0
1262, 2.05, 1, 0
1263, 2.1, 1, 0
1264, 2.15, 1, 0
1265, 2.2, 1, 0
1266, 2.25, 1, 0
1267, 2.3, 1, 0
1268, 2.35, 1, 0
1269, 2.4, 1, 0
1270, 2.45, 1, 0
1271, 2.5, 1, 0
1272, 2.55, 1, 0
1273, 2.6, 1, 0
1274, 2.65, 1, 0
1275, 2.7, 1, 0
1276, 2.75, 1, 0
1277, 2.8, 1, 0
1278, 2.85, 1, 0
1279, 2.9, 1, 0
1280, 2.95, 1, 0
1281, 3, 1, 0
1282, 0, 0, 0.05
1283, 0.05, 0, 0.05
1284, 0.1, 0, 0.05
1285, 0.15, 0, 0.05
1286, 0.2, 0, 0.05
1287, 0.25, 0, 0.05
1288, 0.3, 0, 0.05
1289, 0.35, 0, 0.05
1290, 0.4, 0, 0.05
1291, 0.45, 0, 0.05
1292, 0.5, 0, 0.05
1293, 0.55, 0, 0.05
1294, 0.6, 0, 0.05
1295, 0.65, 0, 0.05
1296, 0.7, 0, 0.05
1297, 0.75, 0, 0.05
1298, 0.8, 0, 0.05
1299, 0.85, 0, 0.05
1300, 0.9, 0, 0.05
1301, 0.95, 0, 0.05
1302, 1, 0, 0.05
1303, 1.05, 0, 0.05
1304, 1.1, 0, 0.05
1305, 1.15, 0, 0.05
1306, 1.2, 0, 0.05
1307, 1.25, 0, 0.05
1308, 1.3, 0, 0.05
1309, 1.35, 0, 0.05
1310, 1.4, 0, 0.05
1311, 1.45, 0, 0.05
1312, 1.5, 0, 0.05
1313, 1.55, 0, 0.05
1314, 1.6, 0, 0.05
1315, 1.65, 0, 0.05
1316, 1.7, 0, 0.05
1317, 1.75, 0, 0.05
1318, 1.8, 0, 0.05
1319, 1.85, 0, 0.05
1320, 1.9, 0, 0.05
1321, 1.95, 0, 0.05
1322, 2, 0, 0.05
1323, 2.05, 0, 0.05
1324, 2.1, 0, 0.05
1325, 2.15, 0, 0.05
1326, 2.2, 0, 0.05
1327, 2.25, 0, 0.05
1328, 2.3, 0, 0.05
1329, 2.35, 0, 0.05
1330, 2.4, 0, 0.05
1331, 2.45, 0, 0.05
1332, 2.5, 0, 0.05
1333, 2.55, 0, 0.05
1334, 2.6, 0, 0.05
1335, 2.65, 0, 0.05
1336, 2.7, 0, 0.05
1337, 2.75, 0, 0.05
1338, 2.8, 0, 0.05
1339, 2.85, 0, 0.05
1340, 2.9, 0, 0.05
1341, 2.95, 0, 0.05
1342, 3, 0, 0.05
1343, 0, 0.05, 0.05
1344, 0.05, 0.05, 0.05
1345, 0.1, 0.05, 0.05
1346, 0.15, 0.05, 0.05
1347, 0.2, 0.05, 0.05
1348, 0.25, 0.05, 0.05
1349, 0.3, 0.05, 0.05
1350, 0.35, 0.05, 0.05
1351, 0.4, 0.05, 0.05
1352, 0.45, 0.05, 0.05
1353, 0.5, 0.05, 0.05
1354, 0.55, 0.05, 0.05
1355, 0.6, 0.05, 0.05
1356, 0.65, 0.05, 0.05
1357, 0.7, 0.05, 0.05
1358, 0.75, 0.05, 0.05
1359, 0.8, 0.05, 0.05
1360, 0.85, 0.05, 0.05
1361, 0.9, 0.05, 0.05
1362, 0.95, 0.05, 0.05
1363, 1, 0.05, 0.05
1364, 1.05, 0.05, 0.05
1365, 1.1, 0.05, 0.05
1366, 1.15, 0.05, 0.05
1367, 1.2, 0.05, 0.05
1368, 1.25, 0.05, 0.05
1369, 1.3, 0.05, 0.05
1370, 1.35, 0.05, 0.05
1371, 1.4, 0.05, 0.05
1372, 1.45, 0.05, 0.05
1373, 1.5, 0.05, 0.05
1374, 1.55, 0.05, 0.05
1375, 1.6, 0.05, 0.05
1376, 1.65, 0.05, 0.05
1377, 1.7, 0.05, 0.05
1378, 1.75, 0.05, 0.05
1379, 1.8, 0.05, 0.05
1380, 1.85, 0.05, 0.05
1381, 1.9, 0.05, 0.05
1382, 1.95, 0.05, 0.05
1383, 2, 0.05, 0.05
1384, 2.05, 0.05, 0.05
1385, 2.1, 0.05, 0.05
1386, 2.15, 0.05, 0.05
1387, 2.2, 0.05, 0.05
1388, 2.25, 0.05, 0.05
1389, 2.3, 0.05, 0.05
1390, 2.35, 0.05, 0.05
1391, 2.4, 0.05, 0.05
1392, 2.45, 0.05, 0.05
1393, 2.5, 0.05, 0.05
1394, 2.55, 0.05, 0.05
1395, 2.6, 0.05, 0.05
1396, 2.65, 0.05, 0.05
1397, 2.7, 0.05, 0.05
1398, 2.75, 0.05, 0.05
1399, 2.8, 0.05, 0.05
1400, 2.85, 0.05, 0.05
1401, 2.9, 0.05, 0.05
1402, 2.95, 0.05, 0.05
1403, 3, 0.05, 0.05
1404, 0, 0.1, 0.05
1405, 0.05, 0.1, 0.05
1406, 0.1, 0.1, 0.05
1407, 0.15, 0.1, 0.05
1408, 0.2, 0.1, 0.05
1409, 0.25, 0.1, 0.05
1410, 0.3, 0.1, 0.05
1411, 0.35, 0.1, 0.05
1412, 0.4, 0.1, 0.05
1413, 0.45, 0.1, 0.05
1414, 0.5, 0.1, 0.05
1415, 0.55, 0.1, 0.05
1416, 0.6, 0.1, 0.05
1417, 0.65, 0.1, 0.05
1418, 0.7, 0.1, 0.05
1419, 0.75, 0.1, 0.05
1420, 0.8, 0.1, 0.05
1421, 0.85, 0.1, 0.05
1422, 0.9, 0.1, 0.05
1423, 0.95, 0.1, 0.05
1424, 1, 0.1, 0.05
1425, 1.05, 0.1, 0.05
1426, 1.1, 0.1, 0.05
1427, 1.15, 0.1, 0.05
1428, 1.2, 0.1, 0.05
1429, 1.25, 0.1, 0.05
1430, 1.3, 0.1, 0.05
1431, 1.35, 0.1, 0.05
1432, 1.4, 0.1, 0.05
1433, 1.45, 0.1, 0.05
1434, 1.5, 0.1, 0.05
1435, 1.55, 0.1, 0.05
1436, 1.6, 0.1, 0.05
1437, 1.65, 0.1, 0.05
1438, 1.7, 0.1, 0.05
1439, 1.75, 0.1, 0.05
1440, 1.8, 0.1, 0.05
1441, 1.85, 0.1, 0.05
1442, 1.9, 0.1, 0.05
1443, 1.95, 0.1, 0.05
1444, 2, 0.1, 0.05
1445, 2.05, 0.1, 0.05
1446, 2.1, 0.1, 0.05
1447, 2.15, 0.1, 0.05
1448, 2.2, 0.1, 0.05
1449, 2.25, 0.1, 0.05
1450, 2.3, 0.1, 0.05
1451, 2.35, 0.1, 0.05
1452, 2.4, 0.1, 0.05
1453, 2.45, 0.1, 0.05
1454, 2.5, 0.1, 0.05
1455, 2.55, 0.1, 0.05
1456, 2.6, 0.1, 0.05
1457, 2.65, 0.1, 0.05
1458, 2.7, 0.1, 0.05
1459, 2.75, 0.1, 0.05
1460, 2.8, 0.1, 0.05
1461, 2.85, 0.1, 0.05
1462, 2.9, 0.1, 0.05
1463, 2.95, 0.1, 0.05
1464, 3, 0.1, 0.05
1465, 0, 0.15, 0.05
1466, 0.05, 0.15, 0.05
1467, 0.1, 0.15, 0.05
1468, 0.15, 0.15, 0.05
1469, 0.2, 0.15, 0.05
1470, 0.25, 0.15, 0.05
1471, 0.3, 0.15, 0.05
1472, 0.35, 0.15, 0.05
1473, 0.4, 0.15, 0.05
1474, 0.45, 0.15, 0.05
1475, 0.5, 0.15, 0.05
1476, 0.55, 0.15, 0.05
1477, 0.6, 0.15, 0.05
1478, 0.65, 0.15, 0.05
1479, 0.7, 0.15, 0.05
1480, 0.75, 0.15, 0.05
1481, 0.8, 0.15, 0.05
1482, 0.85, 0.15, 0.05
1483, 0.9, 0.15, 0.05
1484, 0.95, 0.15, 0.05
1485, 1, 0.15, 0.05
1486, 1.05, 0.15, 0.05
1487, 1.1, 0.15, 0.05
1488, 1.15, 0.15, 0.05
1489, 1.2, 0.15, 0.05
1490, 1.25, 0.15, 0.05
1491, 1.3, 0.15, 0.05
1492, 1.35, 0.15, 0.05
1493, 1.4, 0.15, 0.05
1494, 1.45, 0.15, 0.05
1495, 1.5, 0.15, 0.05
1496, 1.55, 0.15, 0.05
1497, 1.6, 0.15, 0.05
1498, 1.65, 0.15, 0.05
1499, 1.7, 0.15, 0.05
1500, 1.75, 0.15, 0.05
1501, 1.8, 0.15, 0.05
1502, 1.85, 0.15, 0.05
1503, 1.9, 0.15, 0.05
1504, 1.95, 0.15, 0.05
1505, 2, 0.15, 0.05
1506, 2.05, 0.15, 0.05
1507, 2.1, 0.15, 0.05
1508, 2.15, 0.15, 0.05
1509, 2.2, 0.15, 0.05
1510, 2.25, 0.15, 0.05
1511, 2.3, 0.15, 0.05
1512, 2.35, 0.15, 0.05
1513, 2.4, 0.15, 0.05
1514, 2.45, 0.15, 0.05
1515, 2.5, 0.15, 0.05
1516, 2.55, 0.15, 0.05
1517, 2.6, 0.15, 0.05
1518, 2.65, 0.15, 0.05
1519, 2.7, 0.15, 0.05
1520, 2.75, 0.15, 0.05
1521, 2.8, 0.15, 0.05
1522, 2.85, 0.15, 0.05
1523, 2.9, 0.15, 0.05
1524, 2.95, 0.15, 0.05
1525, 3, 0.15, 0.05
1526, 0, 0.2, 0.05
1527, 0.05, 0.2, 0.05
1528, 0.1, 0.2, 0.05
1529, 0.15, 0.2, 0.05
1530, 0.2, 0.2, 0.05
1531, 0.25, 0.2, 0.05
1532, 0.3, 0.2, 0.05
1533, 0.35, 0.2, 0.05
1534, 0.4, 0.2, 0.05
1535, 0.45, 0.2, 0.05
1536, 0.5, 0.2, 0.05
1537, 0.55, 0.2, 0.05
1538, 0.6, 0.2, 0.05
1539, 0.65, 0.2, 0.05
1540, 0.7, 0.2, 0.05
1541, 0.75, 0.2, 0.05
1542, 0.8, 0.2, 0.05
1543, 0.85, 0.2, 0.05
1544, 0.9, 0.2, 0.05
1545, 0.95, 0.2, 0.05
1546, 1, 0.2, 0.05
1547, 1.05, 0.2, 0.05
1548, 1.1, 0.2, 0.05
1549, 1.15, 0.2, 0.05
1550, 1.2, 0.2, 0.05
1551, 1.25, 0.2, 0.05
1552, 1.3, 0.2, 0.05
1553, 1.35, 0.2, 0.05
1554, 1.4, 0.2, 0.05
1555, 1.45, 0.2, 0.05
1556, 1.5, 0.2, 0.05
1557, 1.55, 0.2, 0.05
1558, 1.6, 0.2, 0.05
1559, 1.65, 0.2, 0.05
1560, 1.7, 0.2, 0.05
1561, 1.75, 0.2, 0.05
1562, 1.8, 0.2, 0.05
1563, 1.85, 0.2, 0.05
1564, 1.9, 0.2, 0.05
1565, 1.95, 0.2, 0.05
1566, 2, 0.2, 0.05
1567, 2.05, 0.2, 0.05
1568, 2.1, 0.2, 0.05
1569, 2.15, 0.2, 0.05
1570, 2.2, 0.2, 0.05
1571, 2.25, 0.2, 0.05
1572, 2.3, 0.2, 0.05
1573, 2.35, 0.2, 0.05
1574, 2.4, 0.2, 0.05
1575, 2.45, 0.2, 0.05
1576, 2.5, 0.2, 0.05
1577, 2.55, 0.2, 0.05
1578, 2.6, 0.2, 0.05
1579, 2.65, 0.2, 0.05
1580, 2.7, 0.2, 0.05
1581, 2.75, 0.2, 0.05
1582, 2.8, 0.2, 0.05
1583, 2.85, 0.2, 0.05
1584, 2.9, 0.2, 0.05
1585, 2.95, 0.2, 0.05
1586, 3, 0.2, 0.05
1587, 0, 0.25, 0.05
1588, 0.05, 0.25, 0.05
1589, 0.1, 0.25, 0.05
1590, 0.15, 0.25, 0.05
1591, 0.2, 0.25, 0.05
1592, 0.25, 0.25, 0.05
1593, 0.3, 0.25, 0.05
1594, 0.35, 0.25, 0.05
1595, 0.4, 0.25, 0.05
1596, 0.45, 0.25, 0.05
1597, 0.5, 0.25, 0.05
1598, 0.55, 0.25, 0.05
1599, 0.6, 0.25, 0.05
1600, 0.65, 0.25, 0.05
1601, 0.7, 0.25, 0.05
1602, 0.75, 0.25, 0.05
1603, 0.8, 0.25, 0.05
1604, 0.85, 0.25, 0.05
1605, 0.9, 0.25, 0.05
1606, 0.95, 0.25, 0.05
1607, 1, 0.25, 0.05
1608, 1.05, 0.25, 0.05
1609, 1.1, 0.25, 0.05
1610, 1.15, 0.25, 0.05
1611, 1.2, 0.25, 0.05
1612, 1.25, 0.25, 0.05
1613, 1.3, 0.25, 0.05
1614, 1.35, 0.25, 0.05
1615, 1.4, 0.25, 0.05
1616, 1.45, 0.25, 0.05
1617, 1.5, 0.25, 0.05
1618, 1.55, 0.25, 0.05
1619, 1.6, 0.25, 0.05
1620, 1.65, 0.25, 0.05
1621, 1.7, 0.25, 0.05
1622, 1.75, 0.25, 0.05
1623, 1.8, 0.25, 0.05
1624, 1.85, 0.25, 0.05
1625, 1.9, 0.25, 0.05
1626, 1.95, 0.25, 0.05
1627, 2, 0.25, 0.05
1628, 2.05, 0.25, 0.05
1629, 2.1, 0.25, 0.05
1630, 2.15, 0.25, 0.05
1631, 2.2, 0.25, 0.05
1632, 2.25, 0.25, 0.05
1633, 2.3, 0.25, 0.05
1634, 2.35, 0.25, 0.05
1635, 2.4, 0.25, 0.05
1636, 2.45, 0.25, 0.05
1637, 2.5, 0.25, 0.05
1638, 2.55, 0.25, 0.05
1639, 2.6, 0.25, 0.05
1640, 2.65, 0.25, 0.05
1641, 2.7, 0.25, 0.05
1642, 2.75, 0.25, 0.05
1643, 2.8, 0.25, 0.05
1644, 2.85, 0.25, 0.05
1645, 2.9, 0.25, 0.05
1646, 2.95, 0.25, 0.05
1647, 3, 0.25, 0.05
1648, 0, 0.3, 0.05
1649, 0.05, 0.3, 0.05
1650, 0.1, 0.3, 0.05
1651, 0.15, 0.3, 0.05
1652, 0.2, 0.3, 0.05
1653, 0.25, 0.3, 0.05
1654, 0.3, 0.3, 0.05
1655, 0.35, 0.3, 0.05
1656, 0.4, 0.3, 0.05
1657, 0.45, 0.3, 0.05
1658, 0.5, 0.3, 0.05
1659, 0.55, 0.3, 0.05
1660, 0.6, 0.3, 0.05
1661, 0.65, 0.3, 0.05
1662, 0.7, 0.3, 0.05
1663, 0.75, 0.3, 0.05
1664, 0.8, 0.3, 0.05
1665, 0.85, 0.3, 0.05
1666, 0.9, 0.3, 0.05
1667, 0.95, 0.3, 0.05
1668, 1, 0.3, 0.05
1669, 1.05, 0.3, 0.05
1670, 1.1, 0.3, 0.05
1671, 1.15, 0.3, 0.05
1672, 1.2, 0.3, 0.05
1673, 1.25, 0.3, 0.05
1674, 1.3, 0.3, 0.05
1675, 1.35, 0.3, 0.05
1676, 1.4, 0.3, 0.05
1677, 1.45, 0.3, 0.05
1678, 1.5, 0.3, 0.05
1679, 1.55, 0.3, 0.05
1680, 1.6, 0.3, 0.05
1681, 1.65, 0.3, 0.05
1682, 1.7, 0.3, 0.05
1683, 1.75, 0.3, 0.05
1684, 1.8, 0.3, 0.05
1685, 1.85, 0.3, 0.05
1686, 1.9, 0.3, 0.05
1687, 1.95, 0.3, 0.05
1688, 2, 0.3, 0.05
1689, 2.05, 0.3, 0.05
1690, 2.1, 0.3, 0.05
1691, 2.15, 0.3, 0.05
1692, 2.2, 0.3, 0.05
1693, 2.25, 0.3, 0.05
1694, 2.3, 0.3, 0.05
1695, 2.35, 0.3, 0.05
1696, 2.4, 0.3, 0.05
1697, 2.45, 0.3, 0.05
1698, 2.5, 0.3, 0.05
1699, 2.55, 0.3, 0.05
1700, 2.6, 0.3, 0.05
1701, 2.65, 0.3, 0.05
1702, 2.7, 0.3, 0.05
1703, 2.75, 0.3, 0.05
1704, 2.8, 0.3, 0.05
1705, 2.85, 0.3, 0.05
1706, 2.9, 0.3, 0.05
1707, 2.95, 0.3, 0.05
1708, 3, 0.3, 0.05
1709, 0, 0.35, 0.05
1710, 0.05, 0.35, 0.05
1711, 0.1, 0.35, 0.05
1712, 0.15, 0.35, 0.05
1713, 0.2, 0.35, 0.05
1714, 0.25, 0.35, 0.05
1715, 0.3, 0.35, 0.05
1716, 0.35, 0.35, 0.05
1717, 0.4, 0.35, 0.05
1718, 0.45, 0.35, 0.05
1719, 0.5, 0.35, 0.05
1720, 0.55, 0.35, 0.05
1721, 0.6, 0.35, 0.05
1722, 0.65, 0.35, 0.05
1723, 0.7, 0.35, 0.05
1724, 0.75, 0.35, 0.05
1725, 0.8, 0.35, 0.05
1726, 0.85, 0.35, 0.05
1727, 0.9, 0.35, 0.05
1728, 0.95, 0.35, 0.05
1729, 1, 0.35, 0.05
1730, 1.05, 0.35, 0.05
1731, 1.1, 0.35, 0.05
1732, 1.15, 0.35, 0.05
1733, 1.2, 0.35, 0.05
1734, 1.25, 0.35, 0.05
1735, 1.3, 0.35, 0.05
1736, 1.35, 0.35, 0.05
1737, 1.4, 0.35, 0.05
1738, 1.45, 0.35, 0.05
1739, 1.5, 0.35, 0.05
1740, 1.55, 0.35, 0.05
1741, 1.6, 0.35, 0.05
1742, 1.65, 0.35, 0.05
1743, 1.7, 0.35, 0.05
1744, 1.75, 0.35, 0.05
1745, 1.8, 0.35, 0.05
1746, 1.85, 0.35, 0.05
1747, 1.9, 0.35, 0.05
1748, 1.95, 0.35, 0.05
1749, 2, 0.35, 0.05
1750, 2.05, 0.35, 0.05
1751, 2.1, 0.35, 0.05
1752, 2.15, 0.35, 0.05
1753, 2.2, 0.35, 0.05
1754, 2.25, 0.35, 0.05
1755, 2.3, 0.35, 0.05
1756, 2.35, 0.35, 0.05
1757, 2.4, 0.35, 0.05
1758, 2.45, 0.35, 0.05
1759, 2.5, 0.35, 0.05
1760, 2.55, 0.35, 0.05
1761, 2.6, 0.35, 0.05
1762, 2.65, 0.35, 0.05
1763, 2.7, 0.35, 0.05
1764, 2.75, 0.35, 0.05
1765, 2.8, 0.35, 0.05
1766, 2.85, 0.35, 0.05
1767, 2.9, 0.35, 0.05
1768, 2.95, 0.35, 0.05
1769, 3, 0.35, 0.05
1770, 0, 0.4, 0.05
1771, 0.05, 0.4, 0.05
1772, 0.1, 0.4, 0.05
1773, 0.15, 0.4, 0.05
1774, 0.2, 0.4, 0.05
1775, 0.25, 0.4, 0.05
1776, 0.3, 0.4, 0.05
1777, 0.35, 0.4, 0.05
1778, 0.4, 0.4, 0.05
1779, 0.45, 0.4, 0.05
1780, 0.5, 0.4, 0.05
1781, 0.55, 0.4, 0.05
1782, 0.6, 0.4, 0.05
1783, 0.65, 0.4, 0.05
1784, 0.7, 0.4, 0.05
1785, 0.75, 0.4, 0.05
1786, 0.8, 0.4, 0.05
1787, 0.85, 0.4, 0.05
1788, 0.9, 0.4, 0.05
1789, 0.95, 0.4, 0.05
1790, 1, 0.4, 0.05
1791, 1.05, 0.4, 0.05
1792, 1.1, 0.4, 0.05
1793, 1.15, 0.4, 0.05
1794, 1.2, 0.4, 0.05
1795, 1.25, 0.4, 0.05
1796, 1.3, 0.4, 0.05
1797, 1.35, 0.4, 0.05
1798, 1.4, 0.4, 0.05
1799, 1.45, 0.4, 0.05
1800, 1.5, 0.4, 0.05
1801, 1.55, 0.4, 0.05
1802, 1.6, 0.4, 0.05
1803, 1.65, 0.4, 0.05
1804, 1.7, 0.4, 0.05
1805, 1.75, 0.4, 0.05
1806, 1.8, 0.4, 0.05
1807, 1.85, 0.4, 0.05
1808, 1.9, 0.4, 0.05
1809, 1.95, 0.4, 0.05
1810, 2, 0.4, 0.05
1811, 2.05, 0.4, 0.05
1812, 2.1, 0.4, 0.05
1813, 2.15, 0.4, 0.05
1814, 2.2, 0.4, 0.05
1815, 2.25, 0.4, 0.05
1816, 2.3, 0.4, 0.05
1817, 2.35, 0.4, 0.05
1818, 2.4, 0.4, 0.05
1819, 2.45, 0.4, 0.05
1820, 2.5, 0.4, 0.05
1821, 2.55, 0.4, 0.05
1822, 2.6, 0.4, 0.05
1823, 2.65, 0.4, 0.05
1824, 2.7, 0.4, 0.05
1825, 2.75, 0.4, 0.05
1826, 2.8, 0.4, 0.05
1827, 2.85, 0.4, 0.05
1828, 2.9, 0.4, 0.05
1829, 2.95, 0.4, 0.05
1830, 3, 0.4, 0.05
1831, 0, 0.45, 0.05
1832, 0.05, 0.45, 0.05
1833, 0.1, 0.45, 0.05
1834, 0.15, 0.45, 0.05
1835, 0.2, 0.45, 0.05
1836, 0.25, 0.45, 0.05
1837, 0.3, 0.45, 0.05
1838, 0.35, 0.45, 0.05
1839, 0.4, 0.45, 0.05
1840, 0.45, 0.45, 0.05
1841, 0.5, 0.45, 0.05
1842, 0.55, 0.45, 0.05
1843, 0.6, 0.45, 0.05
1844, 0.65, 0.45, 0.05
1845, 0.7, 0.45, 0.05
1846, 0.75, 0.45, 0.05
1847, 0.8, 0.45, 0.05
1848, 0.85, 0.45, 0.05
1849, 0.9, 0.45, 0.05
1850, 0.95, 0.45, 0.05
1851, 1, 0.45, 0.05
1852, 1.05, 0.45, 0.05
1853, 1.1, 0.45, 0.05
1854, 1.15, 0.45, 0.05
1855, 1.2, 0.45, 0.05
1856, 1.25, 0.45, 0.05
1857, 1.3, 0.45, 0.05
1858, 1.35, 0.45, 0.05
1859, 1.4, 0.45, 0.05
1860, 1.45, 0.45, 0.05
1861, 1.5, 0.45, 0.05
1862, 1.55, 0.45, 0.05
1863, 1.6, 0.45, 0.05
1864, 1.65, 0.45, 0.05
1865, 1.7, 0.45, 0.05
1866, 1.75, 0.45, 0.05
1867, 1.8, 0.45, 0.05
1868, 1.85, 0.45, 0.05
1869, 1.9, 0.45, 0.05
1870, 1.95, 0.45, 0.05
1871, 2, 0.45, 0.05
1872, 2.05, 0.45, 0.05
1873, 2.1, 0.45, 0.05
1874, 2.15, 0.45, 0.05
1875, 2.2, 0.45, 0.05
1876, 2.25, 0.45, 0.05
1877, 2.3, 0.45, 0.05
1878, 2.35, 0.45, 0.05
1879, 2.4, 0.45, 0.05
1880, 2.45, 0.45, 0.05
1881, 2.5, 0.45, 0.05
1882, 2.55, 0.45, 0.05
1883, 2.6, 0.45, 0.05
1884, 2.65, 0.45, 0.05
1885, 2.7, 0.45, 0.05
1886, 2.75, 0.45, 0.05
1887, 2.8, 0.45, 0.05
1888, 2.85, 0.45, 0.05
1889, 2.9, 0.45, 0.05
1890, 2.95, 0.45, 0.05
1891, 3, 0.45, 0.05
1892, 0, 0.5, 0.05
1893, 0.05, 0.5, 0.05
1894, 0.1, 0.5, 0.05
1895, 0.15, 0.5, 0.05
1896, 0.2, 0.5, 0.05
1897, 0.25, 0.5, 0.05
1898, 0.3, 0.5, 0.05
1899, 0.35, 0.5, 0.05
1900, 0.4, 0.5, 0.05
1901, 0.45, 0.5, 0.05
1902, 0.5, 0.5, 0.05
1903, 0.55, 0.5, 0.05
1904, 0.6, 0.5, 0.05
1905, 0.65, 0.5, 0.05
1906, 0.7, 0.5, 0.05
1907, 0.75, 0.5, 0.05
1908, 0.8, 0.5, 0.05
1909, 0.85, 0.5, 0.05
1910, 0.9, 0.5, 0.05
1911, 0.95, 0.5, 0.05
1912, 1, 0.5, 0.05
1913, 1.05, 0.5, 0.05
1914, 1.1, 0.5, 0.05
1915, 1.15, 0.5, 0.05
1916, 1.2, 0.5, 0.05
1917, 1.25, 0.5, 0.05
1918, 1.3, 0.5, 0.05
1919, 1.35, 0.5, 0.05
1920, 1.4, 0.5, 0.05
1921, 1.45, 0.5, 0.05
1922, 1.5, 0.5, 0.05
1923, 1.55, 0.5, 0.05
1924, 1.6, 0.5, 0.05
1925, 1.65, 0.5, 0.05
1926, 1.7, 0.5, 0.05
1927, 1.75, 0.5, 0.05
1928, 1.8, 0.5, 0.05
1929, 1.85, 0.5, 0.05
1930, 1.9, 0.5, 0.05
1931, 1.95, 0.5, 0.05
1932, 2, 0.5, 0.05
1933, 2.05, 0.5, 0.05
1934, 2.1, 0.5, 0.05
1935, 2.15, 0.5, 0.05
1936, 2.2, 0.5, 0.05
1937, 2.25, 0.5, 0.05
1938, 2.3, 0.5, 0.05
1939, 2.35, 0.5, 0.05
1940, 2.4, 0.5, 0.05
1941, 2.45, 0.5, 0.05
1942, 2.5, 0.5, 0.05
1943, 2.55, 0.5, 0.05
1944, 2.6, 0.5, 0.05
1945, 2.65, 0.5, 0.05
1946, 2.7, 0.5, 0.05
1947, 2.75, 0.5, 0.05
1948, 2.8, 0.5, 0.05
1949, 2.85, 0.5, 0.05
1950, 2.9, 0.5, 0.05
1951, 2.95, 0.5, 0.05
1952, 3, 0.5, 0.05
1953, 0, 0.55, 0.05
1954, 0.05, 0.55, 0.05
1955, 0.1, 0.55, 0.05
1956, 0.15, 0.55, 0.05
1957, 0.2, 0.55, 0.05
1958, 0.25, 0.55, 0.05
1959, 0.3, 0.55, 0.05
1960, 0.35, 0.55, 0.05
1961, 0.4, 0.55, 0.05
1962, 0.45, 0.55, 0.05
1963, 0.5, 0.55, 0.05
1964, 0.55, 0.55, 0.05
1965, 0.6, 0.55, 0.05
1966, 0.65, 0.55, 0.05
1967, 0.7, 0.55, 0.05
1968, 0.75, 0.55, 0.05
1969, 0.8, 0.55, 0.05
1970, 0.85, 0.55, 0.05
1971, 0.9, 0.55, 0.05
1972, 0.95, 0.55, 0.05
1973, 1, 0.55, 0.05
1974, 1.05, 0.55, 0.05
1975, 1.1, 0.55, 0.05
1976, 1.15, 0.55, 0.05
1977, 1.2, 0.55, 0.05
1978, 1.25, 0.55, 0.05
1979, 1.3, 0.55, 0.05
1980, 1.35, 0.55, 0.05
1981, 1.4, 0.55, 0.05
1982, 1.45, 0.55, 0.05
1983, 1.5, 0.55, 0.05
1984, 1.55, 0.55, 0.05
1985, 1.6, 0.55, 0.05
1986, 1.65, 0.55, 0.05
1987, 1.7, 0.55, 0.05
1988, 1.75, 0.55, 0.05
1989, 1.8, 0.55, 0.05
1990, 1.85, 0.55, 0.05
1991, 1.9, 0.55, 0.05
1992, 1.95, 0.55, 0.05
1993, 2, 0.55, 0.05
1994, 2.05, 0.55, 0.05
1995, 2.1, 0.55, 0.05
1996, 2.15, 0.55, 0.05
1997, 2.2, 0.55, 0.05
1998, 2.25, 0.55, 0.05
1999, 2.3, 0.55, 0.05
2000, 2.35, 0.55, 0.05
2001, 2.4, 0.55, 0.05
2002, 2.45, 0.55, 0.05
2003, 2.5, 0.55, 0.05
2004, 2.55, 0.55, 0.05
2005, 2.6, 0.55, 0.05
2006, 2.65, 0.55, 0.05
2007, 2.7, 0.55, 0.05
2008, 2.75, 0.55, 0.05
2009, 2.8, 0.55, 0.05
2010, 2.85, 0.55, 0.05
2011, 2.9, 0.55, 0.05
2012, 2.95, 0.55, 0.05
2013, 3, 0.55, 0.05
2014, 0, 0.6, 0.05
2015, 0.05, 0.6, 0.05
2016, 0.1, 0.6, 0.05
2017, 0.15, 0.6, 0.05
2018, 0.2, 0.6, 0.05
2019, 0.25, 0.6, 0.05
2020, 0.3, 0.6, 0.05
2021, 0.35, 0.6, 0.05
2022, 0.4, 0.6, 0.05
2023, 0.45, 0.6, 0.05
2024, 0.5, 0.6, 0.05
2025, 0.55, 0.6, 0.05
2026, 0.6, 0.6, 0.05
2027, 0.65, 0.6, 0.05
2028, 0.7, 0.6, 0.05
2029, 0.75, 0.6, 0.05
2030, 0.8, 0.6, 0.05
2031, 0.85, 0.6, 0.05
2032, 0.9, 0.6, 0.05
2033, 0.95, 0.6, 0.05
2034, 1, 0.6, 0.05
2035, 1.05, 0.6, 0.05
2036, 1.1, 0.6, 0.05
2037, 1.15, 0.6, 0.05
2038, 1.2, 0.6, 0.05
2039, 1.25, 0.6, 0.05
2040, 1.3, 0.6, 0.05
2041, 1.35, 0.6, 0.05
2042, 1.4, 0.6, 0.05
2043, 1.45, 0.6, 0.05
2044, 1.5, 0.6, 0.05
2045, 1.55, 0.6, 0.05
2046, 1.6, 0.6, 0.05
2047, 1.65, 0.6, 0.05
2048, 1.7, 0.6, 0.05
2049, 1.75, 0.6, 0.05
2050, 1.8, 0.6, 0.05
2051, 1.85, 0.6, 0.05
2052, 1.9, 0.6, 0.05
2053, 1.95, 0.6, 0.05
2054, 2, 0.6, 0.05
2055, 2.05, 0.6, 0.05
2056, 2.1, 0.6, 0.05
2057, 2.15, 0.6, 0.05
2058, 2.2, 0.6, 0.05
2059, 2.25, 0.6, 0.05
2060, 2.3, 0.6, 0.05
2061, 2.35, 0.6, 0.05
2062, 2.4, 0.6, 0.05
2063, 2.45, 0.6, 0.05
2064, 2.5, 0.6, 0.05
2065, 2.55, 0.6, 0.05
2066, 2.6, 0.6, 0.05
2067, 2.65, 0.6, 0.05
2068, 2.7, 0.6, 0.05
2069, 2.75, 0.6, 0.05
2070, 2.8, 0.6, 0.05
2071, 2.85, 0.6, 0.05
2072, 2.9, 0.6, 0.05
2073, 2.95, 0.6, 0.05
2074, 3, 0.6, 0.05
2075, 0, 0.65, 0.05
2076, 0.05, 0.65, 0.05
2077, 0.1, 0.65, 0.05
2078, 0.15, 0.65, 0.05
2079, 0.2, 0.65, 0.05
2080, 0.25, 0.65, 0.05
2081, 0.3, 0.65, 0.05
2082, 0.35, 0.65, 0.05
2083, 0.4, 0.65, 0.05
2084, 0.45, 0.65, 0.05
2085, 0.5, 0.65, 0.05
2086, 0.55, 0.65, 0.05
2087, 0.6, 0.65, 0.05
2088, 0.65, 0.65, 0.05
2089, 0.7, 0.65, 0.05
2090, 0.75, 0.65, 0.05
2091, 0.8, 0.65, 0.05
2092, 0.85, 0.65, 0.05
2093, 0.9, 0.65, 0.05
2094, 0.95, 0.65, 0.05
2095, 1, 0.65, 0.05
2096, 1.05, 0.65, 0.05
2097, 1.1, 0.65, 0.05
2098, 1.15, 0.65, 0.05
2099, 1.2, 0.65, 0.05
2100, 1.25, 0.65, 0.05
2101, 1.3, 0.65, 0.05
2102, 1.35, 0.65, 0.05
2103, 1.4, 0.65, 0.05
2104, 1.45, 0.65, 0.05
2105, 1.5, 0.65, 0.05
2106, 1.55, 0.65, 0.05
2107, 1.6, 0.65, 0.05
2108, 1.65, 0.65, 0.05
2109, 1.7, 0.65, 0.05
2110, 1.75, 0.65, 0.05
2111, 1.8, 0.65, 0.05
2112, 1.85, 0.65, 0.05
2113, 1.9, 0.65, 0.05
2114, 1.95, 0.65, 0.05
2115, 2, 0.65, 0.05
2116, 2.05, 0.65, 0.05
2117, 2.1, 0.65, 0.05
2118, 2.15, 0.65, 0.05
2119, 2.2, 0.65, 0.05
2120, 2.25, 0.65, 0.05
2121, 2.3, 0.65, 0.05
2122, 2.35, 0.65, 0.05
2123, 2.4, 0.65, 0.05
2124, 2.45, 0.65, 0.05
2125, 2.5, 0.65, 0.05
2126, 2.55, 0.65, 0.05
2127, 2.6, 0.65, 0.05
2128, 2.65, 0.65, 0.05
2129, 2.7, 0.65, 0.05
2130, 2.75, 0.65, 0.05
2131, 2.8, 0.65, 0.05
2132, 2.85, 0.65, 0.05
2133, 2.9, 0.65, 0.05
2134, 2.95, 0.65, 0.05
2135, 3, 0.65, 0.05
2136, 0, 0.7, 0.05
2137, 0.05, 0.7, 0.05
2138, 0.1, 0.7, 0.05
2139, 0.15, 0.7, 0.05
2140, 0.2, 0.7, 0.05
2141, 0.25, 0.7, 0.05
2142, 0.3, 0.7, 0.05
2143, 0.35, 0.7, 0.05
2144, 0.4, 0.7, 0.05
2145, 0.45, 0.7, 0.05
2146, 0.5, 0.7, 0.05
2147, 0.55, 0.7, 0.05
2148, 0.6, 0.7, 0.05
2149, 0.65, 0.7, 0.05
2150, 0.7, 0.7, 0.05
2151, 0.75, 0.7, 0.05
2152, 0.8, 0.7, 0.05
2153, 0.85, 0.7, 0.05
2154, 0.9, 0.7, 0.05
2155, 0.95, 0.7, 0.05
2156, 1, 0.7, 0.05
2157, 1.05, 0.7, 0.05
2158, 1.1, 0.7, 0.05
2159, 1.15, 0.7, 0.05
2160, 1.2, 0.7, 0.05
2161, 1.25, 0.7, 0.05
2162, 1.3, 0.7, 0.05
2163, 1.35, 0.7, 0.05
2164, 1.4, 0.7, 0.05
2165, 1.45, 0.7, 0.05
2166, 1.5, 0.7, 0.05
2167, 1.55, 0.7, 0.05
2168, 1.6, 0.7, 0.05
2169, 1.65, 0.7, 0.05
2170, 1.7, 0.7, 0.05
2171, 1.75, 0.7, 0.05
2172, 1.8, 0.7, 0.05
2173, 1.85, 0.7, 0.05
2174, 1.9, 0.7, 0.05
2175, 1.95, 0.7, 0.05
2176, 2, 0.7, 0.05
2177, 2.05, 0.7, 0.05
2178, 2.1, 0.7, 0.05
2179, 2.15, 0.7, 0.05
2180, 2.2, 0.7, 0.05
2181, 2.25, 0.7, 0.05
2182, 2.3, 0.7, 0.05
2183, 2.35, 0.7, 0.05
2184, 2.4, 0.7, 0.05
2185, 2.45, 0.7, 0.05
2186, 2.5, 0.7, 0.05
2187, 2.55, 0.7, 0.05
2188, 2.6, 0.7, 0.05
2189, 2.65, 0.7, 0.05
2190, 2.7, 0.7, 0.05
2191, 2.75, 0.7, 0.05
2192, 2.8, 0.7, 0.05
2193, 2.85, 0.7, 0.05
2194, 2.9, 0.7, 0.05
2195, 2.95, 0.7, 0.05
2196, 3, 0.7, 0.05
2197, 0, 0.75, 0.05
2198, 0.05, 0.75, 0.05
2199, 0.1, 0.75, 0.05
2200, 0.15, 0.75, 0.05
2201, 0.2, 0.75, 0.05
2202, 0.25, 0.75, 0.05
2203, 0.3, 0.75, 0.05
2204, 0.35, 0.75, 0.05
2205, 0.4, 0.75, 0.05
2206, 0.45, 0.75, 0.05
2207, 0.5, 0.75, 0.05
2208, 0.55, 0.75, 0.05
2209, 0.6, 0.75, 0.05
2210, 0.65, 0.75, 0.05
2211, 0.7, 0.75, 0.05
2212, 0.75, 0.75, 0.05
2213, 0.8, 0.75, 0.05
2214, 0.85, 0.75, 0.05
2215, 0.9, 0.75, 0.05
2216, 0.95, 0.75, 0.05
2217, 1, 0.75, 0.05
2218, 1.05, 0.75, 0.05
2219, 1.1, 0.75, 0.05
2220, 1.15, 0.75, 0.05
2221, 1.2, 0.75, 0.05
2233, 1.8, 0.75, 0.05
2234, 1.85, 0.75, 0.05
2235, 1.9, 0.75, 0.05
2236, 1.95, 0.75, 0.05
2237, 2, 0.75, 0.05
2238, 2.05, 0.75, 0.05
2239, 2.1, 0.75, 0.05
2240, 2.15, 0.75, 0.05
2241, 2.2, 0.75, 0.05
2242, 2.25, 0.75, 0.05
2243, 2.3, 0.75, 0.05
2244, 2.35, 0.75, 0.05
2245, 2.4, 0.75, 0.05
2246, 2.45, 0.75, 0.05
2247, 2.5, 0.75, 0.05
2248, 2.55, 0.75, 0.05
2249, 2.6, 0.75, 0.05
2250, 2.65, 0.75, 0.05
2251, 2.7, 0.75, 0.05
2252, 2.75, 0.75, 0.05
2253, 2.8, 0.75, 0.05
2254, 2.85, 0.75, 0.05
2255, 2.9, 0.75, 0.05
2256, 2.95, 0.75, 0.05
2257, 3, 0.75, 0.05
2258, 0, 0.8, 0.05
2259, 0.05, 0.8, 0.05
2260, 0.1, 0.8, 0.05
2261, 0.15, 0.8, 0.05
2262, 0.2, 0.8, 0.05
2263, 0.25, 0.8, 0.05
2264, 0.3, 0.8, 0.05
2265, 0.35, 0.8, 0.05
2266, 0.4, 0.8, 0.05
2267, 0.45, 0.8, 0.05
2268, 0.5, 0.8, 0.05
2269, 0.55, 0.8, 0.05
2270, 0.6, 0.8, 0.05
2271, 0.65, 0.8, 0.05
2272, 0.7, 0.8, 0.05
2273, 0.75, 0.8, 0.05
2274, 0.8, 0.8, 0.05
2275, 0.85, 0.8, 0.05
2276, 0.9, 0.8, 0.05
2277, 0.95, 0.8, 0.05
2278, 1, 0.8, 0.05
2279, 1.05, 0.8, 0.05
2280, 1.1, 0.8, 0.05
2281, 1.15, 0.8, 0.05
2282, 1.2, 0.8, 0.05
2294, 1.8, 0.8, 0.05
2295, 1.85, 0.8, 0.05
2296, 1.9, 0.8, 0.05
2297, 1.95, 0.8, 0.05
2298, 2, 0.8, 0.05
2299, 2.05, 0.8, 0.05
2300, 2.1, 0.8, 0.05
2301, 2.15, 0.8, 0.05
2302, 2.2, 0.8, 0.05
2303, 2.25, 0.8, 0.05
2304, 2.3, 0.8, 0.05
2305, 2.35, 0.8, 0.05
2306, 2.4, 0.8, 0.05
2307, 2.45, 0.8, 0.05
2308, 2.5, 0.8, 0.05
2309, 2.55, 0.8, 0.05
2310, 2.6, 0.8, 0.05
2311, 2.65, 0.8, 0.05
2312, 2.7, 0.8, 0.05
2313, 2.75, 0.8, 0.05
2314, 2.8, 0.8, 0.05
2315, 2.85, 0.8, 0.05
2316, 2.9, 0.8, 0.05
2317, 2.95, 0.8, 0.05
2318, 3, 0.8, 0.05
2319, 0, 0.85, 0.05
2320, 0.05, 0.85, 0.05
2321, 0.1, 0.85, 0.05
2322, 0.15, 0.85, 0.05
2323, 0.2, 0.85, 0.05
2324, 0.25, 0.85, 0.05
2325, 0.3, 0.85, 0.05
2326, 0.35, 0.85, 0.05
2327, 0.4, 0.85, 0.05
2328, 0.45, 0.85, 0.05
2329, 0.5, 0.85, 0.05
2330, 0.55, 0.85, 0.05
2331, 0.6, 0.85, 0.05
2332, 0.65, 0.85, 0.05
2333, 0.7, 0.85, 0.05
2334, 0.75, 0.85, 0.05
2335, 0.8, 0.85, 0.05
2336, 0.85, 0.85, 0.05
2337, 0.9, 0.85, 0.05
2338, 0.95, 0.85, 0.05
2339, 1, 0.85, 0.05
2340, 1.05, 0.85, 0.05
2341, 1.1, 0.85, 0.05
2342, 1.15, 0.85, 0.05
2343, 1.2, 0.85, 0.05
2355, 1.8, 0.85, 0.05
2356, 1.85, 0.85, 0.05
2357, 1.9, 0.85, 0.05
2358, 1.95, 0.85, 0.05
2359, 2, 0.85, 0.05
2360, 2.05, 0.85, 0.05
2361, 2.1, 0.85, 0.05
2362, 2.15, 0.85, 0.05
2363, 2.2, 0.85, 0.05
2364, 2.25, 0.85, 0.05
2365, 2.3, 0.85, 0.05
2366, 2.35, 0.85, 0.05
2367, 2.4, 0.85, 0.05
2368, 2.45, 0.85, 0.05
2369, 2.5, 0.85, 0.05
2370, 2.55, 0.85, 0.05
2371, 2.6, 0.85, 0.05
2372, 2.65, 0.85, 0.05
2373, 2.7, 0.85, 0.05
2374, 2.75, 0.85, 0.05
2375, 2.8, 0.85, 0.05
2376, 2.85, 0.85, 0.05
2377, 2.9, 0.85, 0.05
2378, 2.95, 0.85, 0.05
2379, 3, 0.85, 0.05
2380, 0, 0.9, 0.05
2381, 0.05, 0.9, 0.05
2382, 0.1, 0.9, 0.05
2383, 0.15, 0.9, 0.05
2384, 0.2, 0.9, 0.05
2385, 0.25, 0.9, 0.05
2386, 0.3, 0.9, 0.05
2387, 0.35, 0.9, 0.05
2388, 0.4, 0.9, 0.05
2389, 0.45, 0.9, 0.05
2390, 0.5, 0.9, 0.05
2391, 0.55, 0.9, 0.05
2392, 0.6, 0.9, 0.05
2393, 0.65, 0.9, 0.05
2394, 0.7, 0.9, 0.05
2395, 0.75, 0.9, 0.05
2396, 0.8, 0.9, 0.05
2397, 0.85, 0.9, 0.05
2398, 0.9, 0.9, 0.05
2399, 0.95, 0.9, 0.05
2400, 1, 0.9, 0.05
2401, 1.05, 0.9, 0.05
2402, 1.1, 0.9, 0.05
2403, 1.15, 0.9, 0.05
2404, 1.2, 0.9, 0.05
2416, 1.8, 0.9, 0.05
2417, 1.85, 0.9, 0.05
2418, 1.9, 0.9, 0.05
2419, 1.95, 0.9, 0.05
2420, 2, 0.9, 0.05
2421, 2.05, 0.9, 0.05
2422, 2.1, 0.9, 0.05
2423, 2.15, 0.9, 0.05
2424, 2.2, 0.9, 0.05
2425, 2.25, 0.9, 0.05
2426, 2.3, 0.9, 0.05
2427, 2.35, 0.9, 0.05
2428, 2.4, 0.9, 0.05
2429, 2.45, 0.9, 0.05
2430, 2.5, 0.9, 0.05
2431, 2.55, 0.9, 0.05
2432, 2.6, 0.9, 0.05
2433, 2.65, 0.9, 0.05
2434, 2.7, 0.9, 0.05
2435, 2.75, 0.9, 0.05
2436, 2.8, 0.9, 0.05
2437, 2.85, 0.9, 0.05
2438, 2.9, 0.9, 0.05
2439, 2.95, 0.9, 0.05
2440, 3, 0.9, 0.05
2441, 0, 0.95, 0.05
2442, 0.05, 0.95, 0.05
2443, 0.1, 0.95, 0.05
2444, 0.15, 0.95, 0.05
2445, 0.2, 0.95, 0.05
2446, 0.25, 0.95, 0.05
2447, 0.3, 0.95, 0.05
2448, 0.35, 0.95, 0.05
2449, 0.4, 0.95, 0.05
2450, 0.45, 0.95, 0.05
2451, 0.5, 0.95, 0.05
2452, 0.55, 0.95, 0.05
2453, 0.6, 0.95, 0.05
2454, 0.65, 0.95, 0.05
2455, 0.7, 0.95, 0.05
2456, 0.75, 0.95, 0.05
2457, 0.8, 0.95, 0.05
2458, 0.85, 0.95, 0.05
2459, 0.9, 0.95, 0.05
2460, 0.95, 0.95, 0.05
2461, 1, 0.95, 0.05
2462, 1.05, 0.95, 0.05
2463, 1.1, 0.95, 0.05
2464, 1.15, 0.95, 0.05
2465, 1.2, 0.95, 0.05
2477, 1.8, 0.95, 0.05
2478, 1.85, 0.95, 0.05
2479, 1.9, 0.95, 0.05
2480, 1.95, 0.95, 0.05
2481, 2, 0.95, 0.05
2482, 2.05, 0.95, 0.05
2483, 2.1, 0.95, 0.05
2484, 2.15, 0.95, 0.05
2485, 2.2, 0.95, 0.05
2486, 2.25, 0.95, 0.05
2487, 2.3, 0.95, 0.05
2488, 2.35, 0.95, 0.05
2489, 2.4, 0.95, 0.05
2490, 2.45, 0.95, 0.05
2491, 2.5, 0.95, 0.05
2492, 2.55, 0.95, 0.05
2493, 2.6, 0.95, 0.05
2494, 2.65, 0.95, 0.05
2495, 2.7, 0.95, 0.05
2496, 2.75, 0.95, 0.05
2497, 2.8, 0.95, 0.05
2498, 2.85, 0.95, 0.05
2499, 2.9, 0.95, 0.05
2500, 2.95, 0.95, 0.05
2501, 3, 0.95, 0.05
2502, 0, 1, 0.05
2503, 0.05, 1, 0.05
2504, 0.1, 1, 0.05
2505, 0.15, 1, 0.05
2506, 0.2, 1, 0.05
2507, 0.25, 1, 0.05
2508, 0.3, 1, 0.05
2509, 0.35, 1, 0.05
2510, 0.4, 1, 0.05
2511, 0.45, 1, 0.05
2512, 0.5, 1, 0.05
2513, 0.55, 1, 0.05
2514, 0.6, 1, 0.05
2515, 0.65, 1, 0.05
2516, 0.7, 1, 0.05
2517, 0.75, 1, 0.05
2518, 0.8, 1, 0.05
2519, 0.85, 1, 0.05
2520, 0.9, 1, 0.05
2521, 0.95, 1, 0.05
2522, 1, 1, 0.05
2523, 1.05, 1, 0.05
2524, 1.1, 1, 0.05
2525, 1.15, 1, 0.05
2526, 1.2, 1, 0.05
2538, 1.8, 1, 0.05
2539, 1.85, 1, 0.05
2540, 1.9, 1, 0.05
2541, 1.95, 1, 0.05
2542, 2, 1, 0.05
2543, 2.05, 1, 0.05
2544, 2.1, 1, 0.05
2545, 2.15, 1, 0.05
2546, 2.2, 1, 0.05
2547, 2.25, 1, 0.05
2548, 2.3, 1, 0.05
2549, 2.35, 1, 0.05
2550, 2.4, 1, 0.05
2551, 2.45, 1, 0.05
2552, 2.5, 1, 0.05
2553, 2.55, 1, 0.05
2554, 2.6, 1, 0.05
2555, 2.65, 1, 0.05
2556, 2.7, 1, 0.05
2557, 2.75, 1, 0.05
2558, 2.8, 1, 0.05
2559, 2.85, 1, 0.05
2560, 2.9, 1, 0.05
2561, 2.95, 1, 0.05
2562, 3, 1, 0.05
2563, 0, 0, 0.1
2564, 0.05, 0, 0.1
2565, 0.1, 0, 0.1
2566, 0.15, 0, 0.1
2567, 0.2, 0, 0.1
2568, 0.25, 0, 0.1
2569, 0.3, 0, 0.1
2570, 0.35, 0, 0.1
2571, 0.4, 0, 0.1
2572, 0.45, 0, 0.1
2573, 0.5, 0, 0.1
2574, 0.55, 0, 0.1
2575, 0.6, 0, 0.1
2576, 0.65, 0, 0.1
2577, 0.7, 0, 0.1
2578, 0.75, 0, 0.1
2579, 0.8, 0, 0.1
2580, 0.85, 0, 0.1
2581, 0.9, 0, 0.1
2582, 0.95, 0, 0.1
2583, 1, 0, 0.1
2584, 1.05, 0, 0.1
2585, 1.1, 0, 0.1
2586, 1.15, 0, 0.1
2587, 1.2, 0, 0.1
2588, 1.25, 0, 0.1
2589, 1.3, 0, 0.1
2590, 1.35, 0, 0.1
2591, 1.4, 0, 0.1
2592, 1.45, 0, 0.1
2593, 1.5, 0, 0.1
2594, 1.55, 0, 0.1
2595, 1.6, 0, 0.1
2596, 1.65, 0, 0.1
2597, 1.7, 0, 0.1
2598, 1.75, 0, 0.1
2599, 1.8, 0, 0.1
2600, 1.85, 0, 0.1
2601, 1.9, 0, 0.1
2602, 1.95, 0, 0.1
2603, 2, 0, 0.1
2604, 2.05, 0, 0.1
2605, 2.1, 0, 0.1
2606, 2.15, 0, 0.1
2607, 2.2, 0, 0.1
2608, 2.25, 0, 0.1
2609, 2.3, 0, 0.1
2610, 2.35, 0, 0.1
2611, 2.4, 0, 0.1
2612, 2.45, 0, 0.1
2613, 2.5, 0, 0.1
2614, 2.55, 0, 0.1
2615, 2.6, 0, 0.1
2616, 2.65, 0, 0.1
2617, 2.7, 0, 0.1
2618, 2.75, 0, 0.1
2619, 2.8, 0, 0.1
2620, 2.85, 0, 0.1
2621, 2.9, 0, 0.1
2622, 2.95, 0, 0.1
2623, 3, 0, 0.1
2624, 0, 0.05, 0.1
2625, 0.05, 0.05, 0.1
2626, 0.1, 0.05, 0.1
2627, 0.15, 0.05, 0.1
2628, 0.2, 0.05, 0.1
2629, 0.25, 0.05, 0.1
2630, 0.3, 0.05, 0.1
2631, 0.35, 0.05, 0.1
2632, 0.4, 0.05, 0.1
2633, 0.45, 0.05, 0.1
2634, 0.5, 0.05, 0.1
2635, 0.55, 0.05, 0.1
2636, 0.6, 0.05, 0.1
2637, 0.65, 0.05, 0.1
2638, 0.7, 0.05, 0.1
2639, 0.75, 0.05, 0.1
2640, 0.8, 0.05, 0.1
2641, 0.85, 0.05, 0.1
2642, 0.9, 0.05, 0.1
2643, 0.95, 0.05, 0.1
2644, 1, 0.05, 0.1
2645, 1.05, 0.05, 0.1
2646, 1.1, 0.05, 0.1
2647, 1.15, 0.05, 0.1
2648, 1.2, 0.05, 0.1
2649, 1.25, 0.05, 0.1
2650, 1.3, 0.05, 0.1
2651, 1.35, 0.05, 0.1
2652, 1.4, 0.05, 0.1
2653, 1.45, 0.05, 0.1
2654, 1.5, 0.05, 0.1
2655, 1.55, 0.05, 0.1
2656, 1.6, 0.05, 0.1
2657, 1.65, 0.05, 0.1
2658, 1.7, 0.05, 0.1
2659, 1.75, 0.05, 0.1
2660, 1.8, 0.05, 0.1
2661, 1.85, 0.05, 0.1
2662, 1.9, 0.05, 0.1
2663, 1.95, 0.05, 0.1
2664, 2, 0.05, 0.1
2665, 2.05, 0.05, 0.1
2666, 2.1, 0.05, 0.1
2667, 2.15, 0.05, 0.1
2668, 2.2, 0.05, 0.1
2669, 2.25, 0.05, 0.1
2670, 2.3, 0.05, 0.1
2671, 2.35, 0.05, 0.1
2672, 2.4, 0.05, 0.1
2673, 2.45, 0.05, 0.1
2674, 2.5, 0.05, 0.1
2675, 2.55, 0.05, 0.1
2676, 2.6, 0.05, 0.1
2677, 2.65, 0.05, 0.1
2678, 2.7, 0.05, 0.1
2679, 2.75, 0.05, 0.1
2680, 2.8, 0.05, 0.1
2681, 2.85, 0.05, 0.1
2682, 2.9, 0.05, 0.1
2683, 2.95, 0.05, 0.1
2684, 3, 0.05, 0.1
2685, 0, 0.1, 0.1
2686, 0.05, 0.1, 0.1
2687, 0.1, 0.1, 0.1
2688, 0.15, 0.1, 0.1
2689, 0.2, 0.1, 0.1
2690, 0.25, 0.1, 0.1
2691, 0.3, 0.1, 0.1
2692, 0.35, 0.1, 0.1
2693, 0.4, 0.1, 0.1
2694, 0.45, 0.1, 0.1
2695, 0.5, 0.1, 0.1
2696, 0.55, 0.1, 0.1
2697, 0.6, 0.1, 0.1
2698, 0.65, 0.1, 0.1
2699, 0.7, 0.1, 0.1
2700, 0.75, 0.1, 0.1
2701, 0.8, 0.1, 0.1
2702, 0.85, 0.1, 0.1
2703, 0.9, 0.1, 0.1
2704, 0.95, 0.1, 0.1
2705, 1, 0.1, 0.1
2706, 1.05, 0.1, 0.1
2707, 1.1, 0.1, 0.1
2708, 1.15, 0.1, 0.1
2709, 1.2, 0.1, 0.1
2710, 1.25, 0.1, 0.1
2711, 1.3, 0.1, 0.1
2712, 1.35, 0.1, 0.1
2713, 1.4, 0.1, 0.1
2714, 1.45, 0.1, 0.1
2715, 1.5, 0.1, 0.1
2716, 1.55, 0.1, 0.1
2717, 1.6, 0.1, 0.1
2718, 1.65, 0.1, 0.1
2719, 1.7, 0.1, 0.1
2720, 1.75, 0.1, 0.1
2721, 1.8, 0.1, 0.1
2722, 1.85, 0.1, 0.1
2723, 1.9, 0.1, 0.1
2724, 1.95, 0.1, 0.1
2725, 2, 0.1, 0.1
2726, 2.05, 0.1, 0.1
2727, 2.1, 0.1, 0.1
2728, 2.15, 0.1, 0.1
2729, 2.2, 0.1, 0.1
2730, 2.25, 0.1, 0.1
2731, 2.3, 0.1, 0.1
2732, 2.35, 0.1, 0.1
2733, 2.4, 0.1, 0.1
2734, 2.45, 0.1, 0.1
2735, 2.5, 0.1, 0.1
2736, 2.55, 0.1, 0.1
2737, 2.6, 0.1, 0.1
2738, 2.65, 0.1, 0.1
2739, 2.7, 0.1, 0.1
2740, 2.75, 0.1, 0.1
2741, 2.8, 0.1, 0.1
2742, 2.85, 0.1, 0.1
2743, 2.9, 0.1, 0.1
2744, 2.95, 0.1, 0.1
2745, 3, 0.1, 0.1
2746, 0, 0.15, 0.1
2747, 0.05, 0.15, 0.1
2748, 0.1, 0.15, 0.1
2749, 0.15, 0.15, 0.1
2750, 0.2, 0.15, 0.1
2751, 0.25, 0.15, 0.1
2752, 0.3, 0.15, 0.1
2753, 0.35, 0.15, 0.1
2754, 0.4, 0.15, 0.1
2755, 0.45, 0.15, 0.1
2756, 0.5, 0.15, 0.1
2757, 0.55, 0.15, 0.1
2758, 0.6, 0.15, 0.1
2759, 0.65, 0.15, 0.1
2760, 0.7, 0.15, 0.1
2761, 0.75, 0.15, 0.1
2762, 0.8, 0.15, 0.1
2763, 0.85, 0.15, 0.1
2764, 0.9, 0.15, 0.1
2765, 0.95, 0.15, 0.1
2766, 1, 0.15, 0.1
2767, 1.05, 0.15, 0.1
2768, 1.1, 0.15, 0.1
2769, 1.15, 0.15, 0.1
2770, 1.2, 0.15, 0.1
2771, 1.25, 0.15, 0.1
2772, 1.3, 0.15, 0.1
2773, 1.35, 0.15, 0.1
2774, 1.4, 0.15, 0.1
2775, 1.45, 0.15, 0.1
2776, 1.5, 0.15, 0.1
2777, 1.55, 0.15, 0.1
2778, 1.6, 0.15, 0.1
2779, 1.65, 0.15, 0.1
2780, 1.7, 0.15, 0.1
2781, 1.75, 0.15, 0.1
2782, 1.8, 0.15, 0.1
2783, 1.85, 0.15, 0.1
2784, 1.9, 0.15, 0.1
2785, 1.95, 0.15, 0.1
2786, 2, 0.15, 0.1
2787, 2.05, 0.15, 0.1
2788, 2.1, 0.15, 0.1
2789, 2.15, 0.15, 0.1
2790, 2.2, 0.15, 0.1
2791, 2.25, 0.15, 0.1
2792, 2.3, 0.15, 0.1
2793, 2.35, 0.15, 0.1
2794, 2.4, 0.15, 0.1
2795, 2.45, 0.15, 0.1
2796, 2.5, 0.15, 0.1
2797, 2.55, 0.15, 0.1
2798, 2.6, 0.15, 0.1
2799, 2.65, 0.15, 0.1
2800, 2.7, 0.15, 0.1
2801, 2.75, 0.15, 0.1
2802, 2.8, 0.15, 0.1
2803, 2.85, 0.15, 0.1
2804, 2.9, 0.15, 0.1
2805, 2.95, 0.15, 0.1
2806, 3, 0.15, 0.1
2807, 0, 0.2, 0.1
2808, 0.05, 0.2, 0.1
2809, 0.1, 0.2, 0.1
2810, 0.15, 0.2, 0.1
2811, 0.2, 0.2, 0.1
2812, 0.25, 0.2, 0.1
2813, 0.3, 0.2, 0.1
2814, 0.35, 0.2, 0.1
2815, 0.4, 0.2, 0.1
2816, 0.45, 0.2, 0.1
2817, 0.5, 0.2, 0.1
2818, 0.55, 0.2, 0.1
2819, 0.6, 0.2, 0.1
2820, 0.65, 0.2, 0.1
2821, 0.7, 0.2, 0.1
2822, 0.75, 0.2, 0.1
2823, 0.8, 0.2, 0.1
2824, 0.85, 0.2, 0.1
2825, 0.9, 0.2, 0.1
2826, 0.95, 0.2, 0.1
2827, 1, 0.2, 0.1
2828, 1.05, 0.2, 0.1
2829, 1.1, 0.2, 0.1
2830, 1.15, 0.2, 0.1
2831, 1.2, 0.2, 0.1
2832, 1.25, 0.2, 0.1
2833, 1.3, 0.2, 0.1
2834, 1.35, 0.2, 0.1
2835, 1.4, 0.2, 0.1
2836, 1.45, 0.2, 0.1
2837, 1.5, 0.2, 0.1
2838, 1.55, 0.2, 0.1
2839, 1.6, 0.2, 0.1
2840, 1.65, 0.2, 0.1
2841, 1.7, 0.2, 0.1
2842, 1.75, 0.2, 0.1
2843, 1.8, 0.2, 0.1
2844, 1.85, 0.2, 0.1
2845, 1.9, 0.2, 0.1
2846, 1.95, 0.2, 0.1
2847, 2, 0.2, 0.1
2848, 2.05, 0.2, 0.1
2849, 2.1, 0.2, 0.1
2850, 2.15, 0.2, 0.1
2851, 2.2, 0.2, 0.1
2852, 2.25, 0.2, 0.1
2853, 2.3, 0.2, 0.1
2854, 2.35, 0.2, 0.1
2855, 2.4, 0.2, 0.1
2856, 2.45, 0.2, 0.1
2857, 2.5, 0.2, 0.1
2858, 2.55, 0.2, 0.1
2859, 2.6, 0.2, 0.1
2860, 2.65, 0.2, 0.1
2861, 2.7, 0.2, 0.1
2862, 2.75, 0.2, 0.1
2863, 2.8, 0.2, 0.1
2864, 2.85, 0.2, 0.1
2865, 2.9, 0.2, 0.1
2866, 2.95, 0.2, 0.1
2867, 3, 0.2, 0.1
2868, 0, 0.25, 0.1
2869, 0.05, 0.25, 0.1
2870, 0.1, 0.25, 0.1
2871, 0.15, 0.25, 0.1
2872, 0.2, 0.25, 0.1
2873, 0.25, 0.25, 0.1
2874, 0.3, 0.25, 0.1
2875, 0.35, 0.25, 0.1
2876, 0.4, 0.25, 0.1
2877, 0.45, 0.25, 0.1
2878, 0.5, 0.25, 0.1
2879, 0.55, 0.25, 0.1
2880, 0.6, 0.25, 0.1
2881, 0.65, 0.25, 0.1
2882, 0.7, 0.25, 0.1
2883, 0.75, 0.25, 0.1
2884, 0.8, 0.25, 0.1
2885, 0.85, 0.25, 0.1
2886, 0.9, 0.25, 0.1
2887, 0.95, 0.25, 0.1
2888, 1, 0.25, 0.1
2889, 1.05, 0.25, 0.1
2890, 1.1, 0.25, 0.1
2891, 1.15, 0.25, 0.1
2892, 1.2, 0.25, 0.1
2893, 1.25, 0.25, 0.1
2894, 1.3, 0.25, 0.1
2895, 1.35, 0.25, 0.1
2896, 1.4, 0.25, 0.1
2897, 1.45, 0.25, 0.1
2898, 1.5, 0.25, 0.1
2899, 1.55, 0.25, 0.1
2900, 1.6, 0.25, 0.1
2901, 1.65, 0.25, 0.1
2902, 1.7, 0.25, 0.1
2903, 1.75, 0.25, 0.1
2904, 1.8, 0.25, 0.1
2905, 1.85, 0.25, 0.1
2906, 1.9, 0.25, 0.1
2907, 1.95, 0.25, 0.1
2908, 2, 0.25, 0.1
2909, 2.05, 0.25, 0.1
2910, 2.1, 0.25, 0.1
2911, 2.15, 0.25, 0.1
2912, 2.2, 0.25, 0.1
2913, 2.25, 0.25, 0.1
2914, 2.3, 0.25, 0.1
2915, 2.35, 0.25, 0.1
2916, 2.4, 0.25, 0.1
2917, 2.45, 0.25, 0.1
2918, 2.5, 0.25, 0.1
2919, 2.55, 0.25, 0.1
2920, 2.6, 0.25, 0.1
2921, 2.65, 0.25, 0.1
2922, 2.7, 0.25, 0.1
2923, 2.75, 0.25, 0.1
2924, 2.8, 0.25, 0.1
2925, 2.85, 0.25, 0.1
2926, 2.9, 0.25, 0.1
2927, 2.95, 0.25, 0.1
2928, 3, 0.25, 0.1
2929, 0, 0.3, 0.1
2930, 0.05, 0.3, 0.1
2931, 0.1, 0.3, 0.1
2932, 0.15, 0.3, 0.1
2933, 0.2, 0.3, 0.1
2934, 0.25, 0.3, 0.1
2935, 0.3, 0.3, 0.1
2936, 0.35, 0.3, 0.1
2937, 0.4, 0.3, 0.1
2938, 0.45, 0.3, 0.1
2939, 0.5, 0.3, 0.1
2940, 0.55, 0.3, 0.1
2941, 0.6, 0.3, 0.1
2942, 0.65, 0.3, 0.1
2943, 0.7, 0.3, 0.1
2944, 0.75, 0.3, 0.1
2945, 0.8, 0.3, 0.1
2946, 0.85, 0.3, 0.1
2947, 0.9, 0.3, 0.1
2948, 0.95, 0.3, 0.1
2949, 1, 0.3, 0.1
2950, 1.05, 0.3, 0.1
2951, 1.1, 0.3, 0.1
2952, 1.15, 0.3, 0.1
2953, 1.2, 0.3, 0.1
2954, 1.25, 0.3, 0.1
2955, 1.3, 0.3, 0.1
2956, 1.35, 0.3, 0.1
2957, 1.4, 0.3, 0.1
2958, 1.45, 0.3, 0.1
2959, 1.5, 0.3, 0.1
2960, 1.55, 0.3, 0.1
2961, 1.6, 0.3, 0.1
2962, 1.65, 0.3, 0.1
2963, 1.7, 0.3, 0.1
2964, 1.75, 0.3, 0.1
2965, 1.8, 0.3, 0.1
2966, 1.85, 0.3, 0.1
2967, 1.9, 0.3, 0.1
2968, 1.95, 0.3, 0.1
2969, 2, 0.3, 0.1
2970, 2.05, 0.3, 0.1
2971, 2.1, 0.3, 0.1
2972, 2.15, 0.3, 0.1
2973, 2.2, 0.3, 0.1
2974, 2.25, 0.3, 0.1
2975, 2.3, 0.3, 0.1
2976, 2.35, 0.3, 0.1
2977, 2.4, 0.3, 0.1
2978, 2.45, 0.3, 0.1
2979, 2.5, 0.3, 0.1
2980, 2.55, 0.3, 0.1
2981, 2.6, 0.3, 0.1
2982, 2.65, 0.3, 0.1
2983, 2.7, 0.3, 0.1
2984, 2.75, 0.3, 0.1
2985, 2.8, 0.3, 0.1
2986, 2.85, 0.3, 0.1
2987, 2.9, 0.3, 0.1
2988, 2.95, 0.3, 0.1
2989, 3, 0.3, 0.1
2990, 0, 0.35, 0.1
2991, 0.05, 0.35, 0.1
2992, 0.1, 0.35, 0.1
2993, 0.15, 0.35, 0.1
2994, 0.2, 0.35, 0.1
2995, 0.25, 0.35, 0.1
2996, 0.3, 0.35, 0.1
2997, 0.35, 0.35, 0.1
2998, 0.4, 0.35, 0.1
2999, 0.45, 0.35, 0.1
3000, 0.5, 0.35, 0.1
3001, 0.55, 0.35, 0.1
3002, 0.6, 0.35, 0.1
3003, 0.65, 0.35, 0.1
3004, 0.7, 0.35, 0.1
3005, 0.75, 0.35, 0.1
3006, 0.8, 0.35, 0.1
3007, 0.85, 0.35, 0.1
3008, 0.9, 0.35, 0.1
3009, 0.95, 0.35, 0.1
3010, 1, 0.35, 0.1
3011, 1.05, 0.35, 0.1
3012, 1.1, 0.35, 0.1
3013, 1.15, 0.35, 0.1
3014, 1.2, 0.35, 0.1
3015, 1.25, 0.35, 0.1
3016, 1.3, 0.35, 0.1
3017, 1.35, 0.35, 0.1
3018, 1.4, 0.35, 0.1
3019, 1.45, 0.35, 0.1
3020, 1.5, 0.35, 0.1
3021, 1.55, 0.35, 0.1
3022, 1.6, 0.35, 0.1
3023, 1.65, 0.35, 0.1
3024, 1.7, 0.35, 0.1
3025, 1.75, 0.35, 0.1
3026, 1.8, 0.35, 0.1
3027, 1.85, 0.35, 0.1
3028, 1.9, 0.35, 0.1
3029, 1.95, 0.35, 0.1
3030, 2, 0.35, 0.1
3031, 2.05, 0.35, 0.1
3032, 2.1, 0.35, 0.1
3033, 2.15, 0.35, 0.1
3034, 2.2, 0.35, 0.1
3035, 2.25, 0.35, 0.1
3036, 2.3, 0.35, 0.1
3037, 2.35, 0.35, 0.1
3038, 2.4, 0.35, 0.1
3039, 2.45, 0.35, 0.1
3040, 2.5, 0.35, 0.1
3041, 2.55, 0.35, 0.1
3042, 2.6, 0.35, 0.1
3043, 2.65, 0.35, 0.1
3044, 2.7, 0.35, 0.1
3045, 2.75, 0.35, 0.1
3046, 2.8, 0.35, 0.1
3047, 2.85, 0.35, 0.1
3048, 2.9, 0.35, 0.1
3049, 2.95, 0.35, 0.1
3050, 3, 0.35, 0.1
3051, 0, 0.4, 0.1
3052, 0.05, 0.4, 0.1
3053, 0.1, 0.4, 0.1
3054, 0.15, 0.4, 0.1
3055, 0.2, 0.4, 0.1
3056, 0.25, 0.4, 0.1
3057, 0.3, 0.4, 0.1
3058, 0.35, 0.4, 0.1
3059, 0.4, 0.4, 0.1
3060, 0.45, 0.4, 0.1
3061, 0.5, 0.4, 0.1
3062, 0.55, 0.4, 0.1
3063, 0.6, 0.4, 0.1
3064, 0.65, 0.4, 0.1
3065, 0.7, 0.4, 0.1
3066, 0.75, 0.4, 0.1
3067, 0.8, 0.4, 0.1
3068, 0.85, 0.4, 0.1
3069, 0.9, 0.4, 0.1
3070, 0.95, 0.4, 0.1
3071, 1, 0.4, 0.1
3072, 1.05, 0.4, 0.1
3073, 1.1, 0.4, 0.1
3074, 1.15, 0.4, 0.1
3075, 1.2, 0.4, 0.1
3076, 1.25, 0.4, 0.1
3077, 1.3, 0.4, 0.1
3078, 1.35, 0.4, 0.1
3079, 1.4, 0.4, 0.1
3080, 1.45, 0.4, 0.1
3081, 1.5, 0.4, 0.1
3082, 1.55, 0.4, 0.1
3083, 1.6, 0.4, 0.1
3084, 1.65, 0.4, 0.1
3085, 1.7, 0.4, 0.1
3086, 1.75, 0.4, 0.1
3087, 1.8, 0.4, 0.1
3088, 1.85, 0.4, 0.1
3089, 1.9, 0.4, 0.1
3090, 1.95, 0.4, 0.1
3091, 2, 0.4, 0.1
3092, 2.05, 0.4, 0.1
3093, 2.1, 0.4, 0.1
3094, 2.15, 0.4, 0.1
3095, 2.2, 0.4, 0.1
3096, 2.25, 0.4, 0.1
3097, 2.3, 0.4, 0.1
3098, 2.35, 0.4, 0.1
3099, 2.4, 0.4, 0.1
3100, 2.45, 0.4, 0.1
3101, 2.5, 0.4, 0.1
3102, 2.55, 0.4, 0.1
3103, 2.6, 0.4, 0.1
3104, 2.65, 0.4, 0.1
3105, 2.7, 0.4, 0.1
3106, 2.75, 0.4, 0.1
3107, 2.8, 0.4, 0.1
3108, 2.85, 0.4, 0.1
3109, 2.9, 0.4, 0.1
3110, 2.95, 0.4, 0.1
3111, 3, 0.4, 0.1
3112, 0, 0.45, 0.1
3113, 0.05, 0.45, 0.1
3114, 0.1, 0.45, 0.1
3115, 0.15, 0.45, 0.1
3116, 0.2, 0.45, 0.1
3117, 0.25, 0.45, 0.1
3118, 0.3, 0.45, 0.1
3119, 0.35, 0.45, 0.1
3120, 0.4, 0.45, 0.1
3121, 0.45, 0.45, 0.1
3122, 0.5, 0.45, 0.1
3123, 0.55, 0.45, 0.1
3124, 0.6, 0.45, 0.1
3125, 0.65, 0.45, 0.1
3126, 0.7, 0.45, 0.1
3127, 0.75, 0.45, 0.1
3128, 0.8, 0.45, 0.1
3129, 0.85, 0.45, 0.1
3130, 0.9, 0.45, 0.1
3131, 0.95, 0.45, 0.1
3132, 1, 0.45, 0.1
3133, 1.05, 0.45, 0.1
3134, 1.1, 0.45, 0.1
3135, 1.15, 0.45, 0.1
3136, 1.2, 0.45, 0.1
3137, 1.25, 0.45, 0.1
3138, 1.3, 0.45, 0.1
3139, 1.35, 0.45, 0.1
3140, 1.4, 0.45, 0.1
3141, 1.45, 0.45, 0.1
3142, 1.5, 0.45, 0.1
3143, 1.55, 0.45, 0.1
3144, 1.6, 0.45, 0.1
3145, 1.65, 0.45, 0.1
3146, 1.7, 0.45, 0.1
3147, 1.75, 0.45, 0.1
3148, 1.8, 0.45, 0.1
3149, 1.85, 0.45, 0.1
3150, 1.9, 0.45, 0.1
3151, 1.95, 0.45, 0.1
3152, 2, 0.45, 0.1
3153, 2.05, 0.45, 0.1
3154, 2.1, 0.45, 0.1
3155, 2.15, 0.45, 0.1
3156, 2.2, 0.45, 0.1
3157, 2.25, 0.45, 0.1
3158, 2.3, 0.45, 0.1
3159, 2.35, 0.45, 0.1
3160, 2.4, 0.45, 0.1
3161, 2.45, 0.45, 0.1
3162, 2.5, 0.45, 0.1
3163, 2.55, 0.45, 0.1
3164, 2.6, 0.45, 0.1
3165, 2.65, 0.45, 0.1
3166, 2.7, 0.45, 0.1
3167, 2.75, 0.45, 0.1
3168, 2.8, 0.45, 0.1
3169, 2.85, 0.45, 0.1
3170, 2.9, 0.45, 0.1
3171, 2.95, 0.45, 0.1
3172, 3, 0.45, 0.1
3173, 0, 0.5, 0.1
3174, 0.05, 0.5, 0.1
3175, 0.1, 0.5, 0.1
3176, 0.15, 0.5, 0.1
3177, 0.2, 0.5, 0.1
3178, 0.25, 0.5, 0.1
3179, 0.3, 0.5, 0.1
3180, 0.35, 0.5, 0.1
3181, 0.4, 0.5, 0.1
3182, 0.45, 0.5, 0.1
3183, 0.5, 0.5, 0.1
3184, 0.55, 0.5, 0.1
3185, 0.6, 0.5, 0.1
3186, 0.65, 0.5, 0.1
3187, 0.7, 0.5, 0.1
3188, 0.75, 0.5, 0.1
3189, 0.8, 0.5, 0.1
3190, 0.85, 0.5, 0.1
3191, 0.9, 0.5, 0.1
3192, 0.95, 0.5, 0.1
3193, 1, 0.5, 0.1
3194, 1.05, 0.5, 0.1
3195, 1.1, 0.5, 0.1
3196, 1.15, 0.5, 0.1
3197, 1.2, 0.5, 0.1
3198, 1.25, 0.5, 0.1
3199, 1.3, 0.5, 0.1
3200, 1.35, 0.5, 0.1
3201, 1.4, 0.5, 0.1
3202, 1.45, 0.5, 0.1
3203, 1.5, 0.5, 0.1
3204, 1.55, 0.5, 0.1
3205, 1.6, 0.5, 0.1
3206, 1.65, 0.5, 0.1
3207, 1.7, 0.5, 0.1
3208, 1.75, 0.5, 0.1
3209, 1.8, 0.5, 0.1
3210, 1.85, 0.5, 0.1
3211, 1.9, 0.5, 0.1
3212, 1.95, 0.5, 0.1
3213, 2, 0.5, 0.1
3214, 2.05, 0.5, 0.1
3215, 2.1, 0.5, 0.1
3216, 2.15, 0.5, 0.1
3217, 2.2, 0.5, 0.1
3218, 2.25, 0.5, 0.1
3219, 2.3, 0.5, 0.1
3220, 2.35, 0.5, 0.1
3221, 2.4, 0.5, 0.1
3222, 2.45, 0.5, 0.1
3223, 2.5, 0.5, 0.1
3224, 2.55, 0.5, 0.1
3225, 2.6, 0.5, 0.1
3226, 2.65, 0.5, 0.1
3227, 2.7, 0.5, 0.1
3228, 2.75, 0.5, 0.1
3229, 2.8, 0.5, 0.1
3230, 2.85, 0.5, 0.1
3231, 2.9, 0.5, 0.1
3232, 2.95, 0.5, 0.1
3233, 3, 0.5, 0.1
3234, 0, 0.55, 0.1
3235, 0.05, 0.55, 0.1
3236, 0.1, 0.55, 0.1
3237, 0.15, 0.55, 0.1
3238, 0.2, 0.55, 0.1
3239, 0.25, 0.55, 0.1
3240, 0.3, 0.55, 0.1
3241, 0.35, 0.55, 0.1
3242, 0.4, 0.55, 0.1
3243, 0.45, 0.55, 0.1
3244, 0.5, 0.55, 0.1
3245, 0.55, 0.55, 0.1
3246, 0.6, 0.55, 0.1
3247, 0.65, 0.55, 0.1
3248, 0.7, 0.55, 0.1
3249, 0.75, 0.55, 0.1
3250, 0.8, 0.55, 0.1
3251, 0.85, 0.55, 0.1
3252, 0.9, 0.55, 0.1
3253, 0.95, 0.55, 0.1
3254, 1, 0.55, 0.1
3255, 1.05, 0.55, 0.1
3256, 1.1, 0.55, 0.1
3257, 1.15, 0.55, 0.1
3258, 1.2, 0.55, 0.1
3259, 1.25, 0.55, 0.1
3260, 1.3, 0.55, 0.1
3261, 1.35, 0.55, 0.1
3262, 1.4, 0.55, 0.1
3263, 1.45, 0.55, 0.1
3264, 1.5, 0.55, 0.1
3265, 1.55, 0.55, 0.1
3266, 1.6, 0.55, 0.1
3267, 1.65, 0.55, 0.1
3268, 1.7, 0.55, 0.1
3269, 1.75, 0.55, 0.1
3270, 1.8, 0.55, 0.1
3271, 1.85, 0.55, 0.1
3272, 1.9, 0.55, 0.1
3273, 1.95, 0.55, 0.1
3274, 2, 0.55, 0.1
3275, 2.05, 0.55, 0.1
3276, 2.1, 0.55, 0.1
3277, 2.15, 0.55, 0.1
3278, 2.2, 0.55, 0.1
3279, 2.25, 0.55, 0.1
3280, 2.3, 0.55, 0.1
3281, 2.35, 0.55, 0.1
3282, 2.4, 0.55, 0.1
3283, 2.45, 0.55, 0.1
3284, 2.5, 0.55, 0.1
3285, 2.55, 0.55, 0.1
3286, 2.6, 0.55, 0.1
3287, 2.65, 0.55, 0.1
3288, 2.7, 0.55, 0.1
3289, 2.75, 0.55, 0.1
3290, 2.8, 0.55, 0.1
3291, 2.85, 0.55, 0.1
3292, 2.9, 0.55, 0.1
3293, 2.95, 0.55, 0.1
3294, 3, 0.55, 0.1
3295, 0, 0.6, 0.1
3296, 0.05, 0.6, 0.1
3297, 0.1, 0.6, 0.1
3298, 0.15, 0.6, 0.1
3299, 0.2, 0.6, 0.1
3300, 0.25, 0.6, 0.1
3301, 0.3, 0.6, 0.1
3302, 0.35, 0.6, 0.1
3303, 0.4, 0.6, 0.1
3304, 0.45, 0.6, 0.1
3305, 0.5, 0.6, 0.1
3306, 0.55, 0.6, 0.1
3307, 0.6, 0.6, 0.1
3308, 0.65, 0.6, 0.1
3309, 0.7, 0.6, 0.1
3310, 0.75, 0.6, 0.1
3311, 0.8, 0.6, 0.1
3312, 0.85, 0.6, 0.1
3313, 0.9, 0.6, 0.1
3314, 0.95, 0.6, 0.1
3315, 1, 0.6, 0.1
3316, 1.05, 0.6, 0.1
3317, 1.1, 0.6, 0.1
3318, 1.15, 0.6, 0.1
3319, 1.2, 0.6, 0.1
3320, 1.25, 0.6, 0.1
3321, 1.3, 0.6, 0.1
3322, 1.35, 0.6, 0.1
3323, 1.4, 0.6, 0.1
3324, 1.45, 0.6, 0.1
3325, 1.5, 0.6, 0.1
3326, 1.55, 0.6, 0.1
3327, 1.6, 0.6, 0.1
3328, 1.65, 0.6, 0.1
3329, 1.7, 0.6, 0.1
3330, 1.75, 0.6, 0.1
3331, 1.8, 0.6, 0.1
3332, 1.85, 0.6, 0.1
3333, 1.9, 0.6, 0.1
3334, 1.95, 0.6, 0.1
3335, 2, 0.6, 0.1
3336, 2.05, 0.6, 0.1
3337, 2.1, 0.6, 0.1
3338, 2.15, 0.6, 0.1
3339, 2.2, 0.6, 0.1
3340, 2.25, 0.6, 0.1
3341, 2.3, 0.6, 0.1
3342, 2.35, 0.6, 0.1
3343, 2.4, 0.6, 0.1
3344, 2.45, 0.6, 0.1
3345, 2.5, 0.6, 0.1
3346, 2.55, 0.6, 0.1
3347, 2.6, 0.6, 0.1
3348, 2.65, 0.6, 0.1
3349, 2.7, 0.6, 0.1
3350, 2.75, 0.6, 0.1
3351, 2.8, 0.6, 0.1
3352, 2.85, 0.6, 0.1
3353, 2.9, 0.6, 0.1
3354, 2.95, 0.6, 0.1
3355, 3, 0.6, 0.1
3356, 0, 0.65, 0.1
3357, 0.05, 0.65, 0.1
3358, 0.1, 0.65, 0.1
3359, 0.15, 0.65, 0.1
3360, 0.2, 0.65, 0.1
3361, 0.25, 0.65, 0.1
3362, 0.3, 0.65, 0.1
3363, 0.35, 0.65, 0.1
3364, 0.4, 0.65, 0.1
3365, 0.45, 0.65, 0.1
3366, 0.5, 0.65, 0.1
3367, 0.55, 0.65, 0.1
3368, 0.6, 0.65, 0.1
3369, 0.65, 0.65, 0.1
3370, 0.7, 0.65, 0.1
3371, 0.75, 0.65, 0.1
3372, 0.8, 0.65, 0.1
3373, 0.85, 0.65, 0.1
3374, 0.9, 0.65, 0.1
3375, 0.95, 0.65, 0.1
3376, 1, 0.65, 0.1
3377, 1.05, 0.65, 0.1
3378, 1.1, 0.65, 0.1
3379, 1.15, 0.65, 0.1
3380, 1.2, 0.65, 0.1
3381, 1.25, 0.65, 0.1
3382, 1.3, 0.65, 0.1
3383, 1.35, 0.65, 0.1
3384, 1.4, 0.65, 0.1
3385, 1.45, 0.65, 0.1
3386, 1.5, 0.65, 0.1
3387, 1.55, 0.65, 0.1
3388, 1.6, 0.65, 0.1
3389, 1.65, 0.65, 0.1
3390, 1.7, 0.65, 0.1
3391, 1.75, 0.65, 0.1
3392, 1.8, 0.65, 0.1
3393, 1.85, 0.65, 0.1
3394, 1.9, 0.65, 0.1
3395, 1.95, 0.65, 0.1
3396, 2, 0.65, 0.1
3397, 2.05, 0.65, 0.1
3398, 2.1, 0.65, 0.1
3399, 2.15, 0.65, 0.1
3400, 2.2, 0.65, 0.1
3401, 2.25, 0.65, 0.1
3402, 2.3, 0.65, 0.1
3403, 2.35, 0.65, 0.1
3404, 2.4, 0.65, 0.1
3405, 2.45, 0.65, 0.1
3406, 2.5, 0.65, 0.1
3407, 2.55, 0.65, 0.1
3408, 2.6, 0.65, 0.1
3409, 2.65, 0.65, 0.1
3410, 2.7, 0.65, 0.1
3411, 2.75, 0.65, 0.1
3412, 2.8, 0.65, 0.1
3413, 2.85, 0.65, 0.1
3414, 2.9, 0.65, 0.1
3415, 2.95, 0.65, 0.1
3416, 3, 0.65, 0.1
3417, 0, 0.7, 0.1
3418, 0.05, 0.7, 0.1
3419, 0.1, 0.7, 0.1
3420, 0.15, 0.7, 0.1
3421, 0.2, 0.7, 0.1
3422, 0.25, 0.7, 0.1
3423, 0.3, 0.7, 0.1
3424, 0.35, 0.7, 0.1
3425, 0.4, 0.7, 0.1
3426, 0.45, 0.7, 0.1
3427, 0.5, 0.7, 0.1
3428, 0.55, 0.7, 0.1
3429, 0.6, 0.7, 0.1
3430, 0.65, 0.7, 0.1
3431, 0.7, 0.7, 0.1
3432, 0.75, 0.7, 0.1
3433, 0.8, 0.7, 0.1
3434, 0.85, 0.7, 0.1
3435, 0.9, 0.7, 0.1
3436, 0.95, 0.7, 0.1
3437, 1, 0.7, 0.1
3438, 1.05, 0.7, 0.1
3439, 1.1, 0.7, 0.1
3440, 1.15, 0.7, 0.1
3441, 1.2, 0.7, 0.1
3442, 1.25, 0.7, 0.1
3443, 1.3, 0.7, 0.1
3444, 1.35, 0.7, 0.1
3445, 1.4, 0.7, 0.1
3446, 1.45, 0.7, 0.1
3447, 1.5, 0.7, 0.1
3448, 1.55, 0.7, 0.1
3449, 1.6, 0.7, 0.1
3450, 1.65, 0.7, 0.1
3451, 1.7, 0.7, 0.1
3452, 1.75, 0.7, 0.1
3453, 1.8, 0.7, 0.1
3454, 1.85, 0.7, 0.1
3455, 1.9, 0.7, 0.1
3456, 1.95, 0.7, 0.1
3457, 2, 0.7, 0.1
3458, 2.05, 0.7, 0.1
3459, 2.1, 0.7, 0.1
3460, 2.15, 0.7, 0.1
3461, 2.2, 0.7, 0.1
3462, 2.25, 0.7, 0.1
3463, 2.3, 0.7, 0.1
3464, 2.35, 0.7, 0.1
3465, 2.4, 0.7, 0.1
3466, 2.45, 0.7, 0.1
3467, 2.5, 0.7, 0.1
3468, 2.55, 0.7, 0.1
3469, 2.6, 0.7, 0.1
3470, 2.65, 0.7, 0.1
3471, 2.7, 0.7, 0.1
3472, 2.75, 0.7, 0.1
3473, 2.8, 0.7, 0.1
3474, 2.85, 0.7, 0.1
3475, 2.9, 0.7, 0.1
3476, 2.95, 0.7, 0.1
3477, 3, 0.7, 0.1
3478, 0, 0.75, 0.1
3479, 0.05, 0.75, 0.1
3480, 0.1, 0.75, 0.1
3481, 0.15, 0.75, 0.1
3482, 0.2, 0.75, 0.1
3483, 0.25, 0.75, 0.1
3484, 0.3, 0.75, 0.1
3485, 0.35, 0.75, 0.1
3486, 0.4, 0.75, 0.1
3487, 0.45, 0.75, 0.1
3488, 0.5, 0.75, 0.1
3489, 0.55, 0.75, 0.1
3490, 0.6, 0.75, 0.1
3491, 0.65, 0.75, 0.1
3492, 0.7, 0.75, 0.1
3493, 0.75, 0.75, 0.1
3494, 0.8, 0.75, 0.1
3495, 0.85, 0.75, 0.1
3496, 0.9, 0.75, 0.1
3497, 0.95, 0.75, 0.1
3498, 1, 0.75, 0.1
3499, 1.05, 0.75, 0.1
3500, 1.1, 0.75, 0.1
3501, 1.15, 0.75, 0.1
3502, 1.2, 0.75, 0.1
3514, 1.8, 0.75, 0.1
3515, 1.85, 0.75, 0.1
3516, 1.9, 0.75, 0.1
3517, 1.95, 0.75, 0.1
3518, 2, 0.75, 0.1
3519, 2.05, 0.75, 0.1
3520, 2.1, 0.75, 0.1
3521, 2.15, 0.75, 0.1
3522, 2.2, 0.75, 0.1
3523, 2.25, 0.75, 0.1
3524, 2.3, 0.75, 0.1
3525, 2.35, 0.75, 0.1
3526, 2.4, 0.75, 0.1
3527, 2.45, 0.75, 0.1
3528, 2.5, 0.75, 0.1
3529, 2.55, 0.75, 0.1
3530, 2.6, 0.75, 0.1
3531, 2.65, 0.75, 0.1
3532, 2.7, 0.75, 0.1
3533, 2.75, 0.75, 0.1
3534, 2.8, 0.75, 0.1
3535, 2.85, 0.75, 0.1
3536, 2.9, 0.75, 0.1
3537, 2.95, 0.75, 0.1
3538, 3, 0.75, 0.1
3539, 0, 0.8, 0.1
3540, 0.05, 0.8, 0.1
3541, 0.1, 0.8, 0.1
3542, 0.15, 0.8, 0.1
3543, 0.2, 0.8, 0.1
3544, 0.25, 0.8, 0.1
3545, 0.3, 0.8, 0.1
3546, 0.35, 0.8, 0.1
3547, 0.4, 0.8, 0.1
3548, 0.45, 0.8, 0.1
3549, 0.5, 0.8, 0.1
3550, 0.55, 0.8, 0.1
3551, 0.6, 0.8, 0.1
3552, 0.65, 0.8, 0.1
3553, 0.7, 0.8, 0.1
3554, 0.75, 0.8, 0.1
3555, 0.8, 0.8, 0.1
3556, 0.85, 0.8, 0.1
3557, 0.9, 0.8, 0.1
3558, 0.95, 0.8, 0.1
3559, 1, 0.8, 0.1
3560, 1.05, 0.8, 0.1
3561, 1.1, 0.8, 0.1
3562, 1.15, 0.8, 0.1
3563, 1.2, 0.8, 0.1
3575, 1.8, 0.8, 0.1
3576, 1.85, 0.8, 0.1
3577, 1.9, 0.8, 0.1
3578, 1.95, 0.8, 0.1
3579, 2, 0.8, 0.1
3580, 2.05, 0.8, 0.1
3581, 2.1, 0.8, 0.1
3582, 2.15, 0.8, 0.1
3583, 2.2, 0.8, 0.1
3584, 2.25, 0.8, 0.1
3585, 2.3, 0.8, 0.1
3586, 2.35, 0.8, 0.1
3587, 2.4, 0.8, 0.1
3588, 2.45, 0.8, 0.1
3589, 2.5, 0.8, 0.1
3590, 2.55, 0.8, 0.1
3591, 2.6, 0.8, 0.1
3592, 2.65, 0.8, 0.1
3593, 2.7, 0.8, 0.1
3594, 2.75, 0.8, 0.1
3595, 2.8, 0.8, 0.1
3596, 2.85, 0.8, 0.1
3597, 2.9, 0.8, 0.1
3598, 2.95, 0.8, 0.1
3599, 3, 0.8, 0.1
3600, 0, 0.85, 0.1
3601, 0.05, 0.85, 0.1
3602, 0.1, 0.85, 0.1
3603, 0.15, 0.85, 0.1
3604, 0.2, 0.85, 0.1
3605, 0.25, 0.85, 0.1
3606, 0.3, 0.85, 0.1
3607, 0.35, 0.85, 0.1
3608, 0.4, 0.85, 0.1
3609, 0.45, 0.85, 0.1
3610, 0.5, 0.85, 0.1
3611, 0.55, 0.85, 0.1
3612, 0.6, 0.85, 0.1
3613, 0.65, 0.85, 0.1
3614, 0.7, 0.85, 0.1
3615, 0.75, 0.85, 0.1
3616, 0.8, 0.85, 0.1
3617, 0.85, 0.85, 0.1
3618, 0.9, 0.85, 0.1
3619, 0.95, 0.85, 0.1
3620, 1, 0.85, 0.1
3621, 1.05, 0.85, 0.1
3622, 1.1, 0.85, 0.1
3623, 1.15, 0.85, 0.1
3624, 1.2, 0.85, 0.1
3636, 1.8, 0.85, 0.1
3637, 1.85, 0.85, 0.1
3638, 1.9, 0.85, 0.1
3639, 1.95, 0.85, 0.1
3640, 2, 0.85, 0.1
3641, 2.05, 0.85, 0.1
3642, 2.1, 0.85, 0.1
3643, 2.15, 0.85, 0.1
3644, 2.2, 0.85, 0.1
3645, 2.25, 0.85, 0.1
3646, 2.3, 0.85, 0.1
3647, 2.35, 0.85, 0.1
3648, 2.4, 0.85, 0.1
3649, 2.45, 0.85, 0.1
3650, 2.5, 0.85, 0.1
3651, 2.55, 0.85, 0.1
3652, 2.6, 0.85, 0.1
3653, 2.65, 0.85, 0.1
3654, 2.7, 0.85, 0.1
3655, 2.75, 0.85, 0.1
3656, 2.8, 0.85, 0.1
3657, 2.85, 0.85, 0.1
3658, 2.9, 0.85, 0.1
3659, 2.95, 0.85, 0.1
3660, 3, 0.85, 0.1
3661, 0, 0.9, 0.1
3662, 0.05, 0.9, 0.1
3663, 0.1, 0.9, 0.1
3664, 0.15, 0.9, 0.1
3665, 0.2, 0.9, 0.1
3666, 0.25, 0.9, 0.1
3667, 0.3, 0.9, 0.1
3668, 0.35, 0.9, 0.1
3669, 0.4, 0.9, 0.1
3670, 0.45, 0.9, 0.1
3671, 0.5, 0.9, 0.1
3672, 0.55, 0.9, 0.1
3673, 0.6, 0.9, 0.1
3674, 0.65, 0.9, 0.1
3675, 0.7, 0.9, 0.1
3676, 0.75, 0.9, 0.1
3677, 0.8, 0.9, 0.1
3678, 0.85, 0.9, 0.1
3679, 0.9, 0.9, 0.1
3680, 0.95, 0.9, 0.1
3681, 1, 0.9, 0.1
3682, 1.05, 0.9, 0.1
3683, 1.1, 0.9, 0.1
3684, 1.15, 0.9, 0.1
3685, 1.2, 0.9, 0.1
3697, 1.8, 0.9, 0.1
3698, 1.85, 0.9, 0.1
3699, 1.9, 0.9, 0.1
3700, 1.95, 0.9, 0.1
3701, 2, 0.9, 0.1
3702, 2.05, 0.9, 0.1
3703, 2.1, 0.9, 0.1
3704, 2.15, 0.9, 0.1
3705, 2.2, 0.9, 0.1
3706, 2.25, 0.9, 0.1
3707, 2.3, 0.9, 0.1
3708, 2.35, 0.9, 0.1
3709, 2.4, 0.9, 0.1
3710, 2.45, 0.9, 0.1
3711, 2.5, 0.9, 0.1
3712, 2.55, 0.9, 0.1
3713, 2.6, 0.9, 0.1
3714, 2.65, 0.9, 0.1
3715, 2.7, 0.9, 0.1
3716, 2.75, 0.9, 0.1
3717, 2.8, 0.9, 0.1
3718, 2.85, 0.9, 0.1
3719, 2.9, 0.9, 0.1
3720, 2.95, 0.9, 0.1
3721, 3, 0.9, 0.1
3722, 0, 0.95, 0.1
3723, 0.05, 0.95, 0.1
3724, 0.1, 0.95, 0.1
3725, 0.15, 0.95, 0.1
3726, 0.2, 0.95, 0.1
3727, 0.25, 0.95, 0.1
3728, 0.3, 0.95, 0.1
3729, 0.35, 0.95, 0.1
3730, 0.4, 0.95, 0.1
3731, 0.45, 0.95, 0.1
3732, 0.5, 0.95, 0.1
3733, 0.55, 0.95, 0.1
3734, 0.6, 0.95, 0.1
3735, 0.65, 0.95, 0.1
3736, 0.7, 0.95, 0.1
3737, 0.75, 0.95, 0.1
3738, 0.8, 0.95, 0.1
3739, 0.85, 0.95, 0.1
3740, 0.9, 0.95, 0.1
3741, 0.95, 0.95, 0.1
3742, 1, 0.95, 0.1
3743, 1.05, 0.95, 0.1
3744, 1.1, 0.95, 0.1
3745, 1.15, 0.95, 0.1
3746, 1.2, 0.95, 0.1
3758, 1.8, 0.95, 0.1
3759, 1.85, 0.95, 0.1
3760, 1.9, 0.95, 0.1
3761, 1.95, 0.95, 0.1
3762, 2, 0.95, 0.1
3763, 2.05, 0.95, 0.1
3764, 2.1, 0.95, 0.1
3765, 2.15, 0.95, 0.1
3766, 2.2, 0.95, 0.1
3767, 2.25, 0.95, 0.1
3768, 2.3, 0.95, 0.1
3769, 2.35, 0.95, 0.1
3770, 2.4, 0.95, 0.1
3771, 2.45, 0.95, 0.1
3772, 2.5, 0.95, 0.1
3773, 2.55, 0.95, 0.1
3774, 2.6, 0.95, 0.1
3775, 2.65, 0.95, 0.1
3776, 2.7, 0.95, 0.1
3777, 2.75, 0.95, 0.1
3778, 2.8, 0.95, 0.1
3779, 2.85, 0.95, 0.1
3780, 2.9, 0.95, 0.1
3781, 2.95, 0.95, 0.1
3782, 3, 0.95, 0.1
3783, 0, 1, 0.1
3784, 0.05, 1, 0.1
3785, 0.1, 1, 0.1
3786, 0.15, 1, 0.1
3787, 0.2, 1, 0.1
3788, 0.25, 1, 0.1
3789, 0.3, 1, 0.1
3790, 0.35, 1, 0.1
3791, 0.4, 1, 0.1
3792, 0.45, 1, 0.1
3793, 0.5, 1, 0.1
3794, 0.55, 1, 0.1
3795, 0.6, 1, 0.1
3796, 0.65, 1, 0.1
3797, 0.7, 1, 0.1
3798, 0.75, 1, 0.1
3799, 0.8, 1, 0.1
3800, 0.85, 1, 0.1
3801, 0.9, 1, 0.1
3802, 0.95, 1, 0.1
3803, 1, 1, 0.1
3804, 1.05, 1, 0.1
3805, 1.1, 1, 0.1
3806, 1.15, 1, 0.1
3807, 1.2, 1, 0.1
3819, 1.8, 1, 0.1
3820, 1.85, 1, 0.1
3821, 1.9, 1, 0.1
3822, 1.95, 1, 0.1
3823, 2, 1, 0.1
3824, 2.05, 1, 0.1
3825, 2.1, 1, 0.1
3826, 2.15, 1, 0.1
3827, 2.2, 1, 0.1
3828, 2.25, 1, 0.1
3829, 2.3, 1, 0.1
3830, 2.35, 1, 0.1
3831, 2.4, 1, 0.1
3832, 2.45, 1, 0.1
3833, 2.5, 1, 0.1
3834, 2.55, 1, 0.1
3835, 2.6, 1, 0.1
3836, 2.65, 1, 0.1
3837, 2.7, 1, 0.1
3838, 2.75, 1, 0.1
3839, 2.8, 1, 0.1
3840, 2.85, 1, 0.1
3841, 2.9, 1, 0.1
3842, 2.95, 1, 0.1
3843, 3, 1, 0.1
3844, 0, 0, 0.15
3845, 0.05, 0, 0.15
3846, 0.1, 0, 0.15
3847, 0.15, 0, 0.15
3848, 0.2, 0, 0.15
3849, 0.25, 0, 0.15
3850, 0.3, 0, 0.15
3851, 0.35, 0, 0.15
3852, 0.4, 0, 0.15
3853, 0.45, 0, 0.15
3854, 0.5, 0, 0.15
3855, 0.55, 0, 0.15
3856, 0.6, 0, 0.15
3857, 0.65, 0, 0.15
3858, 0.7, 0, 0.15
3859, 0.75, 0, 0.15
3860, 0.8, 0, 0.15
3861, 0.85, 0, 0.15
3862, 0.9, 0, 0.15
3863, 0.95, 0, 0.15
3864, 1, 0, 0.15
3865, 1.05, 0, 0.15
3866, 1.1, 0, 0.15
3867, 1.15, 0, 0.15
3868, 1.2, 0, 0.15
3869, 1.25, 0, 0.15
3870, 1.3, 0, 0.15
3871, 1.35, 0, 0.15
3872, 1.4, 0, 0.15
3873, 1.45, 0, 0.15
3874, 1.5, 0, 0.15
3875, 1.55, 0, 0.15
3876, 1.6, 0, 0.15
3877, 1.65, 0, 0.15
3878, 1.7, 0, 0.15
3879, 1.75, 0, 0.15
3880, 1.8, 0, 0.15
3881, 1.85, 0, 0.15
3882, 1.9, 0, 0.15
3883, 1.95, 0, 0.15
3884, 2, 0, 0.15
3885, 2.05, 0, 0.15
3886, 2.1, 0, 0.15
3887, 2.15, 0, 0.15
3888, 2.2, 0, 0.15
3889, 2.25, 0, 0.15
3890, 2.3, 0, 0.15
3891, 2.35, 0, 0.15
3892, 2.4, 0, 0.15
3893, 2.45, 0, 0.15
3894, 2.5, 0, 0.15
3895, 2.55, 0, 0.15
3896, 2.6, 0, 0.15
3897, 2.65, 0, 0.15
3898, 2.7, 0, 0.15
3899, 2.75, 0, 0.15
3900, 2.8, 0, 0.15
3901, 2.85, 0, 0.15
3902, 2.9, 0, 0.15
3903, 2.95, 0, 0.15
3904, 3, 0, 0.15
3905, 0, 0.05, 0.15
3906, 0.05, 0.05, 0.15
3907, 0.1, 0.05, 0.15
3908, 0.15, 0.05, 0.15
3909, 0.2, 0.05, 0.15
3910, 0.25, 0.05, 0.15
3911, 0.3, 0.05, 0.15
3912, 0.35, 0.05, 0.15
3913, 0.4, 0.05, 0.15
3914, 0.45, 0.05, 0.15
3915, 0.5, 0.05, 0.15
3916, 0.55, 0.05, 0.15
3917, 0.6, 0.05, 0.15
3918, 0.65, 0.05, 0.15
3919, 0.7, 0.05, 0.15
3920, 0.75, 0.05, 0.15
3921, 0.8, 0.05, 0.15
3922, 0.85, 0.05, 0.15
3923, 0.9, 0.05, 0.15
3924, 0.95, 0.05, 0.15
3925, 1, 0.05, 0.15
3926, 1.05, 0.05, 0.15
3927, 1.1, 0.05, 0.15
3928, 1.15, 0.05, 0.15
3929, 1.2, 0.05, 0.15
3930, 1.25, 0.05, 0.15
3931, 1.3, 0.05, 0.15
3932, 1.35, 0.05, 0.15
3933, 1.4, 0.05, 0.15
3934, 1.45, 0.05, 0.15
3935, 1.5, 0.05, 0.15
3936, 1.55, 0.05, 0.15
3937, 1.6, 0.05, 0.15
3938, 1.65, 0.05, 0.15
3939, 1.7, 0.05, 0.15
3940, 1.75, 0.05, 0.15
3941, 1.8, 0.05, 0.15
3942, 1.85, 0.05, 0.15
3943, 1.9, 0.05, 0.15
3944, 1.95, 0.05, 0.15
3945, 2, 0.05, 0.15
3946, 2.05, 0.05, 0.15
3947, 2.1, 0.05, 0.15
3948, 2.15, 0.05, 0.15
3949, 2.2, 0.05, 0.15
3950, 2.25, 0.05, 0.15
3951, 2.3, 0.05, 0.15
3952, 2.35, 0.05, 0.15
3953, 2.4, 0.05, 0.15
3954, 2.45, 0.05, 0.15
3955, 2.5, 0.05, 0.15
3956, 2.55, 0.05, 0.15
3957, 2.6, 0.05, 0.15
3958, 2.65, 0.05, 0.15
3959, 2.7, 0.05, 0.15
3960, 2.75, 0.05, 0.15
3961, 2.8, 0.05, 0.15
3962, 2.85, 0.05, 0.15
3963, 2.9, 0.05, 0.15
3964, 2.95, 0.05, 0.15
3965, 3, 0.05, 0.15
3966, 0, 0.1, 0.15
3967, 0.05, 0.1, 0.15
3968, 0.1, 0.1, 0.15
3969, 0.15, 0.1, 0.15
3970, 0.2, 0.1, 0.15
3971, 0.25, 0.1, 0.15
3972, 0.3, 0.1, 0.15
3973, 0.35, 0.1, 0.15
3974, 0.4, 0.1, 0.15
3975, 0.45, 0.1, 0.15
3976, 0.5, 0.1, 0.15
3977, 0.55, 0.1, 0.15
3978, 0.6, 0.1, 0.15
3979, 0.65, 0.1, 0.15
3980, 0.7, 0.1, 0.15
3981, 0.75, 0.1, 0.15
3982, 0.8, 0.1, 0.15
3983, 0.85, 0.1, 0.15
3984, 0.9, 0.1, 0.15
3985, 0.95, 0.1, 0.15
3986, 1, 0.1, 0.15
3987, 1.05, 0.1, 0.15
3988, 1.1, 0.1, 0.15
3989, 1.15, 0.1, 0.15
3990, 1.2, 0.1, 0.15
3991, 1.25, 0.1, 0.15
3992, 1.3, 0.1, 0.15
3993, 1.35, 0.1, 0.15
3994, 1.4, 0.1, 0.15
3995, 1.45, 0.1, 0.15
3996, 1.5, 0.1, 0.15
3997, 1.55, 0.1, 0.15
3998, 1.6, 0.1, 0.15
3999, 1.65, 0.1, 0.15
4000, 1.7, 0.1, 0.15
4001, 1.75, 0.1, 0.15
4002, 1.8, 0.1, 0.15
4003, 1.85, 0.1, 0.15
4004, 1.9, 0.1, 0.15
4005, 1.95, 0.1, 0.15
4006, 2, 0.1, 0.15
4007, 2.05, 0.1, 0.15
4008, 2.1, 0.1, 0.15
4009, 2.15, 0.1, 0.15
4010, 2.2, 0.1, 0.15
4011, 2.25, 0.1, 0.15
4012, 2.3, 0.1, 0.15
4013, 2.35, 0.1, 0.15
4014, 2.4, 0.1, 0.15
4015, 2.45, 0.1, 0.15
4016, 2.5, 0.1, 0.15
4017, 2.55, 0.1, 0.15
4018, 2.6, 0.1, 0.15
4019, 2.65, 0.1, 0.15
4020, 2.7, 0.1, 0.15
4021, 2.75, 0.1, 0.15
4022, 2.8, 0.1, 0.15
4023, 2.85, 0.1, 0.15
4024, 2.9, 0.1, 0.15
4025, 2.95, 0.1, 0.15
4026, 3, 0.1, 0.15
4027, 0, 0.15, 0.15
4028, 0.05, 0.15, 0.15
4029, 0.1, 0.15, 0.15
4030, 0.15, 0.15, 0.15
4031, 0.2, 0.15, 0.15
4032, 0.25, 0.15, 0.15
4033, 0.3, 0.15, 0.15
4034, 0.35, 0.15, 0.15
4035, 0.4, 0.15, 0.15
4036, 0.45, 0.15, 0.15
4037, 0.5, 0.15, 0.15
4038, 0.55, 0.15, 0.15
4039, 0.6, 0.15, 0.15
4040, 0.65, 0.15, 0.15
4041, 0.7, 0.15, 0.15
4042, 0.75, 0.15, 0.15
4043, 0.8, 0.15, 0.15
4044, 0.85, 0.15, 0.15
4045, 0.9, 0.15, 0.15
4046, 0.95, 0.15, 0.15
4047, 1, 0.15, 0.15
4048, 1.05, 0.15, 0.15
4049, 1.1, 0.15, 0.15
4050, 1.15, 0.15, 0.15
4051, 1.2, 0.15, 0.15
4052, 1.25, 0.15, 0.15
4053, 1.3, 0.15, 0.15
4054, 1.35, 0.15, 0.15
4055, 1.4, 0.15, 0.15
4056, 1.45, 0.15, 0.15
4057, 1.5, 0.15, 0.15
4058, 1.55, 0.15, 0.15
4059, 1.6, 0.15, 0.15
4060, 1.65, 0.15, 0.15
4061, 1.7, 0.15, 0.15
4062, 1.75, 0.15, 0.15
4063, 1.8, 0.15, 0.15
4064, 1.85, 0.15, 0.15
4065, 1.9, 0.15, 0.15
4066, 1.95, 0.15, 0.15
4067, 2, 0.15, 0.15
4068, 2.05, 0.15, 0.15
4069, 2.1, 0.15, 0.15
4070, 2.15, 0.15, 0.15
4071, 2.2, 0.15, 0.15
4072, 2.25, 0.15, 0.15
4073, 2.3, 0.15, 0.15
4074, 2.35, 0.15, 0.15
4075, 2.4, 0.15, 0.15
4076, 2.45, 0.15, 0.15
4077, 2.5, 0.15, 0.15
4078, 2.55, 0.15, 0.15
4079, 2.6, 0.15, 0.15
4080, 2.65, 0.15, 0.15
4081, 2.7, 0.15, 0.15
4082, 2.75, 0.15, 0.15
4083, 2.8, 0.15, 0.15
4084, 2.85, 0.15, 0.15
4085, 2.9, 0.15, 0.15
4086, 2.95, 0.15, 0.15
4087, 3, 0.15, 0.15
4088, 0, 0.2, 0.15
4089, 0.05, 0.2, 0.15
4090, 0.1, 0.2, 0.15
4091, 0.15, 0.2, 0.15
4092, 0.2, 0.2, 0.15
4093, 0.25, 0.2, 0.15
4094, 0.3, 0.2, 0.15
4095, 0.35, 0.2, 0.15
4096, 0.4, 0.2, 0.15
4097, 0.45, 0.2, 0.15
4098, 0.5, 0.2, 0.15
4099, 0.55, 0.2, 0.15
4100, 0.6, 0.2, 0.15
4101, 0.65, 0.2, 0.15
4102, 0.7, 0.2, 0.15
4103, 0.75, 0.2, 0.15
4104, 0.8, 0.2, 0.15
4105, 0.85, 0.2, 0.15
4106, 0.9, 0.2, 0.15
4107, 0.95, 0.2, 0.15
4108, 1, 0.2, 0.15
4109, 1.05, 0.2, 0.15
4110, 1.1, 0.2, 0.15
4111, 1.15, 0.2, 0.15
4112, 1.2, 0.2, 0.15
4113, 1.25, 0.2, 0.15
4114, 1.3, 0.2, 0.15
4115, 1.35, 0.2, 0.15
4116, 1.4, 0.2, 0.15
4117, 1.45, 0.2, 0.15
4118, 1.5, 0.2, 0.15
4119, 1.55, 0.2, 0.15
4120, 1.6, 0.2, 0.15
4121, 1.65, 0.2, 0.15
4122, 1.7, 0.2, 0.15
4123, 1.75, 0.2, 0.15
4124, 1.8, 0.2, 0.15
4125, 1.85, 0.2, 0.15
4126, 1.9, 0.2, 0.15
4127, 1.95, 0.2, 0.15
4128, 2, 0.2, 0.15
4129, 2.05, 0.2, 0.15
4130, 2.1, 0.2, 0.15
4131, 2.15, 0.2, 0.15
4132, 2.2, 0.2, 0.15
4133, 2.25, 0.2, 0.15
4134, 2.3, 0.2, 0.15
4135, 2.35, 0.2, 0.15
4136, 2.4, 0.2, 0.15
4137, 2.45, 0.2, 0.15
4138, 2.5, 0.2, 0.15
4139, 2.55, 0.2, 0.15
4140, 2.6, 0.2, 0.15
4141, 2.65, 0.2, 0.15
4142, 2.7, 0.2, 0.15
4143, 2.75, 0.2, 0.15
4144, 2.8, 0.2, 0.15
4145, 2.85, 0.2, 0.15
4146, 2.9, 0.2, 0.15
4147, 2.95, 0.2, 0.15
4148, 3, 0.2, 0.15
4149, 0, 0.25, 0.15
4150, 0.05, 0.25, 0.15
4151, 0.1, 0.25, 0.15
4152, 0.15, 0.25, 0.15
4153, 0.2, 0.25, 0.15
4154, 0.25, 0.25, 0.15
4155, 0.3, 0.25, 0.15
4156, 0.35, 0.25, 0.15
4157, 0.4, 0.25, 0.15
4158, 0.45, 0.25, 0.15
4159, 0.5, 0.25, 0.15
4160, 0.55, 0.25, 0.15
4161, 0.6, 0.25, 0.15
4162, 0.65, 0.25, 0.15
4163, 0.7, 0.25, 0.15
4164, 0.75, 0.25, 0.15
4165, 0.8, 0.25, 0.15
4166, 0.85, 0.25, 0.15
4167, 0.9, 0.25, 0.15
4168, 0.95, 0.25, 0.15
4169, 1, 0.25, 0.15
4170, 1.05, 0.25, 0.15
4171, 1.1, 0.25, 0.15
4172, 1.15, 0.25, 0.15
4173, 1.2, 0.25, 0.15
4174, 1.25, 0.25, 0.15
4175, 1.3, 0.25, 0.15
4176, 1.35, 0.25, 0.15
4177, 1.4, 0.25, 0.15
4178, 1.45, 0.25, 0.15
4179, 1.5, 0.25, 0.15
4180, 1.55, 0.25, 0.15
4181, 1.6, 0.25, 0.15
4182, 1.65, 0.25, 0.15
4183, 1.7, 0.25, 0.15
4184, 1.75, 0.25, 0.15
4185, 1.8, 0.25, 0.15
4186, 1.85, 0.25, 0.15
4187, 1.9, 0.25, 0.15
4188, 1.95, 0.25, 0.15
4189, 2, 0.25, 0.15
4190, 2.05, 0.25, 0.15
4191, 2.1, 0.25, 0.15
4192, 2.15, 0.25, 0.15
4193, 2.2, 0.25, 0.15
4194, 2.25, 0.25, 0.15
4195, 2.3, 0.25, 0.15
4196, 2.35, 0.25, 0.15
4197, 2.4, 0.25, 0.15
4198, 2.45, 0.25, 0.15
4199, 2.5, 0.25, 0.15
4200, 2.55, 0.25, 0.15
4201, 2.6, 0.25, 0.15
4202, 2.65, 0.25, 0.15
4203, 2.7, 0.25, 0.15
4204, 2.75, 0.25, 0.15
4205, 2.8, 0.25, 0.15
4206, 2.85, 0.25, 0.15
4207, 2.9, 0.25, 0.15
4208, 2.95, 0.25, 0.15
4209, 3, 0.25, 0.15
4210, 0, 0.3, 0.15
4211, 0.05, 0.3, 0.15
4212, 0.1, 0.3, 0.15
4213, 0.15, 0.3, 0.15
4214, 0.2, 0.3, 0.15
4215, 0.25, 0.3, 0.15
4216, 0.3, 0.3, 0.15
4217, 0.35, 0.3, 0.15
4218, 0.4, 0.3, 0.15
4219, 0.45, 0.3, 0.15
4220, 0.5, 0.3, 0.15
4221, 0.55, 0.3, 0.15
4222, 0.6, 0.3, 0.15
4223, 0.65, 0.3, 0.15
4224, 0.7, 0.3, 0.15
4225, 0.75, 0.3, 0.15
4226, 0.8, 0.3, 0.15
4227, 0.85, 0.3, 0.15
4228, 0.9, 0.3, 0.15
4229, 0.95, 0.3, 0.15
4230, 1, 0.3, 0.15
4231, 1.05, 0.3, 0.15
4232, 1.1, 0.3, 0.15
4233, 1.15, 0.3, 0.15
4234, 1.2, 0.3, 0.15
4235, 1.25, 0.3, 0.15
4236, 1.3, 0.3, 0.15
4237, 1.35, 0.3, 0.15
4238, 1.4, 0.3, 0.15
4239, 1.45, 0.3, 0.15
4240, 1.5, 0.3, 0.15
4241, 1.55, 0.3, 0.15
4242, 1.6, 0.3, 0.15
4243, 1.65, 0.3, 0.15
4244, 1.7, 0.3, 0.15
4245, 1.75, 0.3, 0.15
4246, 1.8, 0.3, 0.15
4247, 1.85, 0.3, 0.15
4248, 1.9, 0.3, 0.15
4249, 1.95, 0.3, 0.15
4250, 2, 0.3, 0.15
4251, 2.05, 0.3, 0.15
4252, 2.1, 0.3, 0.15
4253, 2.15, 0.3, 0.15
4254, 2.2, 0.3, 0.15
4255, 2.25, 0.3, 0.15
4256, 2.3, 0.3, 0.15
4257, 2.35, 0.3, 0.15
4258, 2.4, 0.3, 0.15
4259, 2.45, 0.3, 0.15
4260, 2.5, 0.3, 0.15
4261, 2.55, 0.3, 0.15
4262, 2.6, 0.3, 0.15
4263, 2.65, 0.3, 0.15
4264, 2.7, 0.3, 0.15
4265, 2.75, 0.3, 0.15
4266, 2.8, 0.3, 0.15
4267, 2.85, 0.3, 0.15
4268, 2.9, 0.3, 0.15
4269, 2.95, 0.3, 0.15
4270, 3, 0.3, 0.15
4271, 0, 0.35, 0.15
4272, 0.05, 0.35, 0.15
4273, 0.1, 0.35, 0.15
4274, 0.15, 0.35, 0.15
4275, 0.2, 0.35, 0.15
4276, 0.25, 0.35, 0.15
4277, 0.3, 0.35, 0.15
4278, 0.35, 0.35, 0.15
4279, 0.4, 0.35, 0.15
4280, 0.45, 0.35, 0.15
4281, 0.5, 0.35, 0.15
4282, 0.55, 0.35, 0.15
4283, 0.6, 0.35, 0.15
4284, 0.65, 0.35, 0.15
4285, 0.7, 0.35, 0.15
4286, 0.75, 0.35, 0.15
4287, 0.8, 0.35, 0.15
4288, 0.85, 0.35, 0.15
4289, 0.9, 0.35, 0.15
4290, 0.95, 0.35, 0.15
4291, 1, 0.35, 0.15
4292, 1.05, 0.35, 0.15
4293, 1.1, 0.35, 0.15
4294, 1.15, 0.35, 0.15
4295, 1.2, 0.35, 0.15
4296, 1.25, 0.35, 0.15
4297, 1.3, 0.35, 0.15
4298, 1.35, 0.35, 0.15
4299, 1.4, 0.35, 0.15
4300, 1.45, 0.35, 0.15
4301, 1.5, 0.35, 0.15
4302, 1.55, 0.35, 0.15
4303, 1.6, 0.35, 0.15
4304, 1.65, 0.35, 0.15
4305, 1.7, 0.35, 0.15
4306, 1.75, 0.35, 0.15
4307, 1.8, 0.35, 0.15
4308, 1.85, 0.35, 0.15
4309, 1.9, 0.35, 0.15
4310, 1.95, 0.35, 0.15
4311, 2, 0.35, 0.15
4312, 2.05, 0.35, 0.15
4313, 2.1, 0.35, 0.15
4314, 2.15, 0.35, 0.15
4315, 2.2, 0.35, 0.15
4316, 2.25, 0.35, 0.15
4317, 2.3, 0.35, 0.15
4318, 2.35, 0.35, 0.15
4319, 2.4, 0.35, 0.15
4320, 2.45, 0.35, 0.15
4321, 2.5, 0.35, 0.15
4322, 2.55, 0.35, 0.15
4323, 2.6, 0.35, 0.15
4324, 2.65, 0.35, 0.15
4325, 2.7, 0.35, 0.15
4326, 2.75, 0.35, 0.15
4327, 2.8, 0.35, 0.15
4328, 2.85, 0.35, 0.15
4329, 2.9, 0.35, 0.15
4330, 2.95, 0.35, 0.15
4331, 3, 0.35, 0.15
4332, 0, 0.4, 0.15
4333, 0.05, 0.4, 0.15
4334, 0.1, 0.4, 0.15
4335, 0.15, 0.4, 0.15
4336, 0.2, 0.4, 0.15
4337, 0.25, 0.4, 0.15
4338, 0.3, 0.4, 0.15
4339, 0.35, 0.4, 0.15
4340, 0.4, 0.4, 0.15
4341, 0.45, 0.4, 0.15
4342, 0.5, 0.4, 0.15
4343, 0.55, 0.4, 0.15
4344, 0.6, 0.4, 0.15
4345, 0.65, 0.4, 0.15
4346, 0.7, 0.4, 0.15
4347, 0.75, 0.4, 0.15
4348, 0.8, 0.4, 0.15
4349, 0.85, 0.4, 0.15
4350, 0.9, 0.4, 0.15
4351, 0.95, 0.4, 0.15
4352, 1, 0.4, 0.15
4353, 1.05, 0.4, 0.15
4354, 1.1, 0.4, 0.15
4355, 1.15, 0.4, 0.15
4356, 1.2, 0.4, 0.15
4357, 1.25, 0.4, 0.15
4358, 1.3, 0.4, 0.15
4359, 1.35, 0.4, 0.15
4360, 1.4, 0.4, 0.15
4361, 1.45, 0.4, 0.15
4362, 1.5, 0.4, 0.15
4363, 1.55, 0.4, 0.15
4364, 1.6, 0.4, 0.15
4365, 1.65, 0.4, 0.15
4366, 1.7, 0.4, 0.15
4367, 1.75, 0.4, 0.15
4368, 1.8, 0.4, 0.15
4369, 1.85, 0.4, 0.15
4370, 1.9, 0.4, 0.15
4371, 1.95, 0.4, 0.15
4372, 2, 0.4, 0.15
4373, 2.05, 0.4, 0.15
4374, 2.1, 0.4, 0.15
4375, 2.15, 0.4, 0.15
4376, 2.2, 0.4, 0.15
4377, 2.25, 0.4, 0.15
4378, 2.3, 0.4, 0.15
4379, 2.35, 0.4, 0.15
4380, 2.4, 0.4, 0.15
4381, 2.45, 0.4, 0.15
4382, 2.5, 0.4, 0.15
4383, 2.55, 0.4, 0.15
4384, 2.6, 0.4, 0.15
4385, 2.65, 0.4, 0.15
4386, 2.7, 0.4, 0.15
4387, 2.75, 0.4, 0.15
4388, 2.8, 0.4, 0.15
4389, 2.85, 0.4, 0.15
4390, 2.9, 0.4, 0.15
4391, 2.95, 0.4, 0.15
4392, 3, 0.4, 0.15
4393, 0, 0.45, 0.15
4394, 0.05, 0.45, 0.15
4395, 0.1, 0.45, 0.15
4396, 0.15, 0.45, 0.15
4397, 0.2, 0.45, 0.15
4398, 0.25, 0.45, 0.15
4399, 0.3, 0.45, 0.15
4400, 0.35, 0.45, 0.15
4401, 0.4, 0.45, 0.15
4402, 0.45, 0.45, 0.15
4403, 0.5, 0.45, 0.15
4404, 0.55, 0.45, 0.15
4405, 0.6, 0.45, 0.15
4406, 0.65, 0.45, 0.15
4407, 0.7, 0.45, 0.15
4408, 0.75, 0.45, 0.15
4409, 0.8, 0.45, 0.15
4410, 0.85, 0.45, 0.15
4411, 0.9, 0.45, 0.15
4412, 0.95, 0.45, 0.15
4413, 1, 0.45, 0.15
4414, 1.05, 0.45, 0.15
4415, 1.1, 0.45, 0.15
4416, 1.15, 0.45, 0.15
4417, 1.2, 0.45, 0.15
4418, 1.25, 0.45, 0.15
4419, 1.3, 0.45, 0.15
4420, 1.35, 0.45, 0.15
4421, 1.4, 0.45, 0.15
4422, 1.45, 0.45, 0.15
4423, 1.5, 0.45, 0.15
4424, 1.55, 0.45, 0.15
4425, 1.6, 0.45, 0.15
4426, 1.65, 0.45, 0.15
4427, 1.7, 0.45, 0.15
4428, 1.75, 0.45, 0.15
4429, 1.8, 0.45, 0.15
4430, 1.85, 0.45, 0.15
4431, 1.9, 0.45, 0.15
4432, 1.95, 0.45, 0.15
4433, 2, 0.45, 0.15
4434, 2.05, 0.45, 0.15
4435, 2.1, 0.45, 0.15
4436, 2.15, 0.45, 0.15
4437, 2.2, 0.45, 0.15
4438, 2.25, 0.45, 0.15
4439, 2.3, 0.45, 0.15
4440, 2.35, 0.45, 0.15
4441, 2.4, 0.45, 0.15
4442, 2.45, 0.45, 0.15
4443, 2.5, 0.45, 0.15
4444, 2.55, 0.45, 0.15
4445, 2.6, 0.45, 0.15
4446, 2.65, 0.45, 0.15
4447, 2.7, 0.45, 0.15
4448, 2.75, 0.45, 0.15
4449, 2.8, 0.45, 0.15
4450, 2.85, 0.45, 0.15
4451, 2.9, 0.45, 0.15
4452, 2.95, 0.45, 0.15
4453, 3, 0.45, 0.15
4454, 0, 0.5, 0.15
4455, 0.05, 0.5, 0.15
4456, 0.1, 0.5, 0.15
4457, 0.15, 0.5, 0.15
4458, 0.2, 0.5, 0.15
4459, 0.25, 0.5, 0.15
4460, 0.3, 0.5, 0.15
4461, 0.35, 0.5, 0.15
4462, 0.4, 0.5, 0.15
4463, 0.45, 0.5, 0.15
4464, 0.5, 0.5, 0.15
4465, 0.55, 0.5, 0.15
4466, 0.6, 0.5, 0.15
4467, 0.65, 0.5, 0.15
4468, 0.7, 0.5, 0.15
4469, 0.75, 0.5, 0.15
4470, 0.8, 0.5, 0.15
4471, 0.85, 0.5, 0.15
4472, 0.9, 0.5, 0.15
4473, 0.95, 0.5, 0.15
4474, 1, 0.5, 0.15
4475, 1.05, 0.5, 0.15
4476, 1.1, 0.5, 0.15
4477, 1.15, 0.5, 0.15
4478, 1.2, 0.5, 0.15
4479, 1.25, 0.5, 0.15
4480, 1.3, 0.5, 0.15
4481, 1.35, 0.5, 0.15
4482, 1.4, 0.5, 0.15
4483, 1.45, 0.5, 0.15
4484, 1.5, 0.5, 0.15
4485, 1.55, 0.5, 0.15
4486, 1.6, 0.5, 0.15
4487, 1.65, 0.5, 0.15
4488, 1.7, 0.5, 0.15
4489, 1.75, 0.5, 0.15
4490, 1.8, 0.5, 0.15
4491, 1.85, 0.5, 0.15
4492, 1.9, 0.5, 0.15
4493, 1.95, 0.5, 0.15
4494, 2, 0.5, 0.15
4495, 2.05, 0.5, 0.15
4496, 2.1, 0.5, 0.15
4497, 2.15, 0.5, 0.15
4498, 2.2, 0.5, 0.15
4499, 2.25, 0.5, 0.15
4500, 2.3, 0.5, 0.15
4501, 2.35, 0.5, 0.15
4502, 2.4, 0.5, 0.15
4503, 2.45, 0.5, 0.15
4504, 2.5, 0.5, 0.15
4505, 2.55, 0.5, 0.15
4506, 2.6, 0.5, 0.15
4507, 2.65, 0.5, 0.15
4508, 2.7, 0.5, 0.15
4509, 2.75, 0.5, 0.15
4510, 2.8, 0.5, 0.15
4511, 2.85, 0.5, 0.15
4512, 2.9, 0.5, 0.15
4513, 2.95, 0.5, 0.15
4514, 3, 0.5, 0.15
4515, 0, 0.55, 0.15
4516, 0.05, 0.55, 0.15
4517, 0.1, 0.55, 0.15
4518, 0.15, 0.55, 0.15
4519, 0.2, 0.55, 0.15
4520, 0.25, 0.55, 0.15
4521, 0.3, 0.55, 0.15
4522, 0.35, 0.55, 0.15
4523, 0.4, 0.55, 0.15
4524, 0.45, 0.55, 0.15
4525, 0.5, 0.55, 0.15
4526, 0.55, 0.55, 0.15
4527, 0.6, 0.55, 0.15
4528, 0.65, 0.55, 0.15
4529, 0.7, 0.55, 0.15
4530, 0.75, 0.55, 0.15
4531, 0.8, 0.55, 0.15
4532, 0.85, 0.55, 0.15
4533, 0.9, 0.55, 0.15
4534, 0.95, 0.55, 0.15
4535, 1, 0.55, 0.15
4536, 1.05, 0.55, 0.15
4537, 1.1, 0.55, 0.15
4538, 1.15, 0.55, 0.15
4539, 1.2, 0.55, 0.15
4540, 1.25, 0.55, 0.15
4541, 1.3, 0.55, 0.15
4542, 1.35, 0.55, 0.15
4543, 1.4, 0.55, 0.15
4544, 1.45, 0.55, 0.15
4545, 1.5, 0.55, 0.15
4546, 1.55, 0.55, 0.15
4547, 1.6, 0.55, 0.15
4548, 1.65, 0.55, 0.15
4549, 1.7, 0.55, 0.15
4550, 1.75, 0.55, 0.15
4551, 1.8, 0.55, 0.15
4552, 1.85, 0.55, 0.15
4553, 1.9, 0.55, 0.15
4554, 1.95, 0.55, 0.15
4555, 2, 0.55, 0.15
4556, 2.05, 0.55, 0.15
4557, 2.1, 0.55, 0.15
4558, 2.15, 0.55, 0.15
4559, 2.2, 0.55, 0.15
4560, 2.25, 0.55, 0.15
4561, 2.3, 0.55, 0.15
4562, 2.35, 0.55, 0.15
4563, 2.4, 0.55, 0.15
4564, 2.45, 0.55, 0.15
4565, 2.5, 0.55, 0.15
4566, 2.55, 0.55, 0.15
4567, 2.6, 0.55, 0.15
4568, 2.65, 0.55, 0.15
4569, 2.7, 0.55, 0.15
4570, 2.75, 0.55, 0.15
4571, 2.8, 0.55, 0.15
4572, 2.85, 0.55, 0.15
4573, 2.9, 0.55, 0.15
4574, 2.95, 0.55, 0.15
4575, 3, 0.55, 0.15
4576, 0, 0.6, 0.15
4577, 0.05, 0.6, 0.15
4578, 0.1, 0.6, 0.15
4579, 0.15, 0.6, 0.15
4580, 0.2, 0.6, 0.15
4581, 0.25, 0.6, 0.15
4582, 0.3, 0.6, 0.15
4583, 0.35, 0.6, 0.15
4584, 0.4, 0.6, 0.15
4585, 0.45, 0.6, 0.15
4586, 0.5, 0.6, 0.15
4587, 0.55, 0.6, 0.15
4588, 0.6, 0.6, 0.15
4589, 0.65, 0.6, 0.15
4590, 0.7, 0.6, 0.15
4591, 0.75, 0.6, 0.15
4592, 0.8, 0.6, 0.15
4593, 0.85, 0.6, 0.15
4594, 0.9, 0.6, 0.15
4595, 0.95, 0.6, 0.15
4596, 1, 0.6, 0.15
4597, 1.05, 0.6, 0.15
4598, 1.1, 0.6, 0.15
4599, 1.15, 0.6, 0.15
4600, 1.2, 0.6, 0.15
4601, 1.25, 0.6, 0.15
4602, 1.3, 0.6, 0.15
4603, 1.35, 0.6, 0.15
4604, 1.4, 0.6, 0.15
4605, 1.45, 0.6, 0.15
4606, 1.5, 0.6, 0.15
4607, 1.55, 0.6, 0.15
4608, 1.6, 0.6, 0.15
4609, 1.65, 0.6, 0.15
4610, 1.7, 0.6, 0.15
4611, 1.75, 0.6, 0.15
4612, 1.8, 0.6, 0.15
4613, 1.85, 0.6, 0.15
4614, 1.9, 0.6, 0.15
4615, 1.95, 0.6, 0.15
4616, 2, 0.6, 0.15
4617, 2.05, 0.6, 0.15
4618, 2.1, 0.6, 0.15
4619, 2.15, 0.6, 0.15
4620, 2.2, 0.6, 0.15
4621, 2.25, 0.6, 0.15
4622, 2.3, 0.6, 0.15
4623, 2.35, 0.6, 0.15
4624, 2.4, 0.6, 0.15
4625, 2.45, 0.6, 0.15
4626, 2.5, 0.6, 0.15
4627, 2.55, 0.6, 0.15
4628, 2.6, 0.6, 0.15
4629, 2.65, 0.6, 0.15
4630, 2.7, 0.6, 0.15
4631, 2.75, 0.6, 0.15
4632, 2.8, 0.6, 0.15
4633, 2.85, 0.6, 0.15
4634, 2.9, 0.6, 0.15
4635, 2.95, 0.6, 0.15
4636, 3, 0.6, 0.15
4637, 0, 0.65, 0.15
4638, 0.05, 0.65, 0.15
4639, 0.1, 0.65, 0.15
4640, 0.15, 0.65, 0.15
4641, 0.2, 0.65, 0.15
4642, 0.25, 0.65, 0.15
4643, 0.3, 0.65, 0.15
4644, 0.35, 0.65, 0.15
4645, 0.4, 0.65, 0.15
4646, 0.45, 0.65, 0.15
4647, 0.5, 0.65, 0.15
4648, 0.55, 0.65, 0.15
4649, 0.6, 0.65, 0.15
4650, 0.65, 0.65, 0.15
4651, 0.7, 0.65, 0.15
4652, 0.75, 0.65, 0.15
4653, 0.8, 0.65, 0.15
4654, 0.85, 0.65, 0.15
4655, 0.9, 0.65, 0.15
4656, 0.95, 0.65, 0.15
4657, 1, 0.65, 0.15
4658, 1.05, 0.65, 0.15
4659, 1.1, 0.65, 0.15
4660, 1.15, 0.65, 0.15
4661, 1.2, 0.65, 0.15
4662, 1.25, 0.65, 0.15
4663, 1.3, 0.65, 0.15
4664, 1.35, 0.65, 0.15
4665, 1.4, 0.65, 0.15
4666, 1.45, 0.65, 0.15
4667, 1.5, 0.65, 0.15
4668, 1.55, 0.65, 0.15
4669, 1.6, 0.65, 0.15
4670, 1.65, 0.65, 0.15
4671, 1.7, 0.65, 0.15
4672, 1.75, 0.65, 0.15
4673, 1.8, 0.65, 0.15
4674, 1.85, 0.65, 0.15
4675, 1.9, 0.65, 0.15
4676, 1.95, 0.65, 0.15
4677, 2, 0.65, 0.15
4678, 2.05, 0.65, 0.15
4679, 2.1, 0.65, 0.15
4680, 2.15, 0.65, 0.15
4681, 2.2, 0.65, 0.15
4682, 2.25, 0.65, 0.15
4683, 2.3, 0.65, 0.15
4684, 2.35, 0.65, 0.15
4685, 2.4, 0.65, 0.15
4686, 2.45, 0.65, 0.15
4687, 2.5, 0.65, 0.15
4688, 2.55, 0.65, 0.15
4689, 2.6, 0.65, 0.15
4690, 2.65, 0.65, 0.15
4691, 2.7, 0.65, 0.15
4692, 2.75, 0.65, 0.15
4693, 2.8, 0.65, 0.15
4694, 2.85, 0.65, 0.15
4695, 2.9, 0.65, 0.15
4696, 2.95, 0.65, 0.15
4697, 3, 0.65, 0.15
4698, 0, 0.7, 0.15
4699, 0.05, 0.7, 0.15
4700, 0.1, 0.7, 0.15
4701, 0.15, 0.7, 0.15
4702, 0.2, 0.7, 0.15
4703, 0.25, 0.7, 0.15
4704, 0.3, 0.7, 0.15
4705, 0.35, 0.7, 0.15
4706, 0.4, 0.7, 0.15
4707, 0.45, 0.7, 0.15
4708, 0.5, 0.7, 0.15
4709, 0.55, 0.7, 0.15
4710, 0.6, 0.7, 0.15
4711, 0.65, 0.7, 0.15
4712, 0.7, 0.7, 0.15
4713, 0.75, 0.7, 0.15
4714, 0.8, 0.7, 0.15
4715, 0.85, 0.7, 0.15
4716, 0.9, 0.7, 0.15
4717, 0.95, 0.7, 0.15
4718, 1, 0.7, 0.15
4719, 1.05, 0.7, 0.15
4720, 1.1, 0.7, 0.15
4721, 1.15, 0.7, 0.15
4722, 1.2, 0.7, 0.15
4723, 1.25, 0.7, 0.15
4724, 1.3, 0.7, 0.15
4725, 1.35, 0.7, 0.15
4726, 1.4, 0.7, 0.15
4727, 1.45, 0.7, 0.15
4728, 1.5, 0.7, 0.15
4729, 1.55, 0.7, 0.15
4730, 1.6, 0.7, 0.15
4731, 1.65, 0.7, 0.15
4732, 1.7, 0.7, 0.15
4733, 1.75, 0.7, 0.15
4734, 1.8, 0.7, 0.15
4735, 1.85, 0.7, 0.15
4736, 1.9, 0.7, 0.15
4737, 1.95, 0.7, 0.15
4738, 2, 0.7, 0.15
4739, 2.05, 0.7, 0.15
4740, 2.1, 0.7, 0.15
4741, 2.15, 0.7, 0.15
4742, 2.2, 0.7, 0.15
4743, 2.25, 0.7, 0.15
4744, 2.3, 0.7, 0.15
4745, 2.35, 0.7, 0.15
4746, 2.4, 0.7, 0.15
4747, 2.45, 0.7, 0.15
4748, 2.5, 0.7, 0.15
4749, 2.55, 0.7, 0.15
4750, 2.6, 0.7, 0.15
4751, 2.65, 0.7, 0.15
4752, 2.7, 0.7, 0.15
4753, 2.75, 0.7, 0.15
4754, 2.8, 0.7, 0.15
4755, 2.85, 0.7, 0.15
4756, 2.9, 0.7, 0.15
4757, 2.95, 0.7, 0.15
4758, 3, 0.7, 0.15
4759, 0, 0.75, 0.15
4760, 0.05, 0.75, 0.15
4761, 0.1, 0.75, 0.15
4762, 0.15, 0.75, 0.15
4763, 0.2, 0.75, 0.15
4764, 0.25, 0.75, 0.15
4765, 0.3, 0.75, 0.15
4766, 0.35, 0.75, 0.15
4767, 0.4, 0.75, 0.15
4768, 0.45, 0.75, 0.15
4769, 0.5, 0.75, 0.15
4770, 0.55, 0.75, 0.15
4771, 0.6, 0.75, 0.15
4772, 0.65, 0.75, 0.15
4773, 0.7, 0.75, 0.15
4774, 0.75, 0.75, 0.15
4775, 0.8, 0.75, 0.15
4776, 0.85, 0.75, 0.15
4777, 0.9, 0.75, 0.15
4778, 0.95, 0.75, 0.15
4779, 1, 0.75, 0.15
4780, 1.05, 0.75, 0.15
4781, 1.1, 0.75, 0.15
4782, 1.15, 0.75, 0.15
4783, 1.2, 0.75, 0.15
4795, 1.8, 0.75, 0.15
4796, 1.85, 0.75, 0.15
4797, 1.9, 0.75, 0.15
4798, 1.95, 0.75, 0.15
4799, 2, 0.75, 0.15
4800, 2.05, 0.75, 0.15
4801, 2.1, 0.75, 0.15
4802, 2.15, 0.75, 0.15
4803, 2.2, 0.75, 0.15
4804, 2.25, 0.75, 0.15
4805, 2.3, 0.75, 0.15
4806, 2.35, 0.75, 0.15
4807, 2.4, 0.75, 0.15
4808, 2.45, 0.75, 0.15
4809, 2.5, 0.75, 0.15
4810, 2.55, 0.75, 0.15
4811, 2.6, 0.75, 0.15
4812, 2.65, 0.75, 0.15
4813, 2.7, 0.75, 0.15
4814, 2.75, 0.75, 0.15
4815, 2.8, 0.75, 0.15
4816, 2.85, 0.75, 0.15
4817, 2.9, 0.75, 0.15
4818, 2.95, 0.75, 0.15
4819, 3, 0.75, 0.15
4820, 0, 0.8, 0.15
4821, 0.05, 0.8, 0.15
4822, 0.1, 0.8, 0.15
4823, 0.15, 0.8, 0.15
4824, 0.2, 0.8, 0.15
4825, 0.25, 0.8, 0.15
4826, 0.3, 0.8, 0.15
4827, 0.35, 0.8, 0.15
4828, 0.4, 0.8, 0.15
4829, 0.45, 0.8, 0.15
4830, 0.5, 0.8, 0.15
4831, 0.55, 0.8, 0.15
4832, 0.6, 0.8, 0.15
4833, 0.65, 0.8, 0.15
4834, 0.7, 0.8, 0.15
4835, 0.75, 0.8, 0.15
4836, 0.8, 0.8, 0.15
4837, 0.85, 0.8, 0.15
4838, 0.9, 0.8, 0.15
4839, 0.95, 0.8, 0.15
4840, 1, 0.8, 0.15
4841, 1.05, 0.8, 0.15
4842, 1.1, 0.8, 0.15
4843, 1.15, 0.8, 0.15
4844, 1.2, 0.8, 0.15
4856, 1.8, 0.8, 0.15
4857, 1.85, 0.8, 0.15
4858, 1.9, 0.8, 0.15
4859, 1.95, 0.8, 0.15
4860, 2, 0.8, 0.15
4861, 2.05, 0.8, 0.15
4862, 2.1, 0.8, 0.15
4863, 2.15, 0.8, 0.15
4864, 2.2, 0.8, 0.15
4865, 2.25, 0.8, 0.15
4866, 2.3, 0.8, 0.15
4867, 2.35, 0.8, 0.15
4868, 2.4, 0.8, 0.15
4869, 2.45, 0.8, 0.15
4870, 2.5, 0.8, 0.15
4871, 2.55, 0.8, 0.15
4872, 2.6, 0.8, 0.15
4873, 2.65, 0.8, 0.15
4874, 2.7, 0.8, 0.15
4875, 2.75, 0.8, 0.15
4876, 2.8, 0.8, 0.15
4877, 2.85, 0.8, 0.15
4878, 2.9, 0.8, 0.15
4879, 2.95, 0.8, 0.15
4880, 3, 0.8, 0.15
4881, 0, 0.85, 0.15
4882, 0.05, 0.85, 0.15
4883, 0.1, 0.85, 0.15
4884, 0.15, 0.85, 0.15
4885, 0.2, 0.85, 0.15
4886, 0.25, 0.85, 0.15
4887, 0.3, 0.85, 0.15
4888, 0.35, 0.85, 0.15
4889, 0.4, 0.85, 0.15
4890, 0.45, 0.85, 0.15
4891, 0.5, 0.85, 0.15
4892, 0.55, 0.85, 0.15
4893, 0.6, 0.85, 0.15
4894, 0.65, 0.85, 0.15
4895, 0.7, 0.85, 0.15
4896, 0.75, 0.85, 0.15
4897, 0.8, 0.85, 0.15
4898, 0.85, 0.85, 0.15
4899, 0.9, 0.85, 0.15
4900, 0.95, 0.85, 0.15
4901, 1, 0.85, 0.15
4902, 1.05, 0.85, 0.15
4903, 1.1, 0.85, 0.15
4904, 1.15, 0.85, 0.15
4905, 1.2, 0.85, 0.15
4917, 1.8, 0.85, 0.15
4918, 1.85, 0.85, 0.15
4919, 1.9, 0.85, 0.15
4920, 1.95, 0.85, 0.15
4921, 2, 0.85, 0.15
4922, 2.05, 0.85, 0.15
4923, 2.1, 0.85, 0.15
4924, 2.15, 0.85, 0.15
4925, 2.2, 0.85, 0.15
4926, 2.25, 0.85, 0.15
4927, 2.3, 0.85, 0.15
4928, 2.35, 0.85, 0.15
4929, 2.4, 0.85, 0.15
4930, 2.45, 0.85, 0.15
4931, 2.5, 0.85, 0.15
4932, 2.55, 0.85, 0.15
4933, 2.6, 0.85, 0.15
4934, 2.65, 0.85, 0.15
4935, 2.7, 0.85, 0.15
4936, 2.75, 0.85, 0.15
4937, 2.8, 0.85, 0.15
4938, 2.85, 0.85, 0.15
4939, 2.9, 0.85, 0.15
4940, 2.95, 0.85, 0.15
4941, 3, 0.85, 0.15
4942, 0, 0.9, 0.15
4943, 0.05, 0.9, 0.15
4944, 0.1, 0.9, 0.15
4945, 0.15, 0.9, 0.15
4946, 0.2, 0.9, 0.15
4947, 0.25, 0.9, 0.15
4948, 0.3, 0.9, 0.15
4949, 0.35, 0.9, 0.15
4950, 0.4, 0.9, 0.15
4951, 0.45, 0.9, 0.15
4952, 0.5, 0.9, 0.15
4953, 0.55, 0.9, 0.15
4954, 0.6, 0.9, 0.15
4955, 0.65, 0.9, 0.15
4956, 0.7, 0.9, 0.15
4957, 0.75, 0.9, 0.15
4958, 0.8, 0.9, 0.15
4959, 0.85, 0.9, 0.15
4960, 0.9, 0.9, 0.15
4961, 0.95, 0.9, 0.15
4962, 1, 0.9, 0.15
4963, 1.05, 0.9, 0.15
4964, 1.1, 0.9, 0.15
4965, 1.15, 0.9, 0.15
4966, 1.2, 0.9, 0.15
4978, 1.8, 0.9, 0.15
4979, 1.85, 0.9, 0.15
4980, 1.9, 0.9, 0.15
4981, 1.95, 0.9, 0.15
4982, 2, 0.9, 0.15
4983, 2.05, 0.9, 0.15
4984, 2.1, 0.9, 0.15
4985, 2.15, 0.9, 0.15
4986, 2.2, 0.9, 0.15
4987, 2.25, 0.9, 0.15
4988, 2.3, 0.9, 0.15
4989, 2.35, 0.9, 0.15
4990, 2.4, 0.9, 0.15
4991, 2.45, 0.9, 0.15
4992, 2.5, 0.9, 0.15
4993, 2.55, 0.9, 0.15
4994, 2.6, 0.9, 0.15
4995, 2.65, 0.9, 0.15
4996, 2.7, 0.9, 0.15
4997, 2.75, 0.9, 0.15
4998, 2.8, 0.9, 0.15
4999, 2.85, 0.9, 0.15
5000, 2.9, 0.9, 0.15
5001, 2.95, 0.9, 0.15
5002, 3, 0.9, 0.15
5003, 0, 0.95, 0.15
5004, 0.05, 0.95, 0.15
5005, 0.1, 0.95, 0.15
5006, 0.15, 0.95, 0.15
5007, 0.2, 0.95, 0.15
5008, 0.25, 0.95, 0.15
5009, 0.3, 0.95, 0.15
5010, 0.35, 0.95, 0.15
5011, 0.4, 0.95, 0.15
5012, 0.45, 0.95, 0.15
5013, 0.5, 0.95, 0.15
5014, 0.55, 0.95, 0.15
5015, 0.6, 0.95, 0.15
5016, 0.65, 0.95, 0.15
5017, 0.7, 0.95, 0.15
5018, 0.75, 0.95, 0.15
5019, 0.8, 0.95, 0.15
5020, 0.85, 0.95, 0.15
5021, 0.9, 0.95, 0.15
5022, 0.95, 0.95, 0.15
5023, 1, 0.95, 0.15
5024, 1.05, 0.95, 0.15
5025, 1.1, 0.95, 0.15
5026, 1.15, 0.95, 0.15
5027, 1.2, 0.95, 0.15
5039, 1.8, 0.95, 0.15
5040, 1.85, 0.95, 0.15
5041, 1.9, 0.95, 0.15
5042, 1.95, 0.95, 0.15
5043, 2, 0.95, 0.15
5044, 2.05, 0.95, 0.15
5045, 2.1, 0.95, 0.15
5046, 2.15, 0.95, 0.15
5047, 2.2, 0.95, 0.15
5048, 2.25, 0.95, 0.15
5049, 2.3, 0.95, 0.15
5050, 2.35, 0.95, 0.15
5051, 2.4, 0.95, 0.15
5052, 2.45, 0.95, 0.15
5053, 2.5, 0.95, 0.15
5054, 2.55, 0.95, 0.15
5055, 2.6, 0.95, 0.15
5056, 2.65, 0.95, 0.15
5057, 2.7, 0.95, 0.15
5058, 2.75, 0.95, 0.15
5059, 2.8, 0.95, 0.15
5060, 2.85, 0.95, 0.15
5061, 2.9, 0.95, 0.15
5062, 2.95, 0.95, 0.15
5063, 3, 0.95, 0.15
5064, 0, 1, 0.15
5065, 0.05, 1, 0.15
5066, 0.1, 1, 0.15
5067, 0.15, 1, 0.15
5068, 0.2, 1, 0.15
5069, 0.25, 1, 0.15
5070, 0.3, 1, 0.15
5071, 0.35, 1, 0.15
5072, 0.4, 1, 0.15
5073, 0.45, 1, 0.15
5074, 0.5, 1, 0.15
5075, 0.55, 1, 0.15
5076, 0.6, 1, 0.15
5077, 0.65, 1, 0.15
5078, 0.7, 1, 0.15
5079, 0.75, 1, 0.15
5080, 0.8, 1, 0.15
5081, 0.85, 1, 0.15
5082, 0.9, 1, 0.15
5083, 0.95, 1, 0.15
5084, 1, 1, 0.15
5085, 1.05, 1, 0.15
5086, 1.1, 1, 0.15
5087, 1.15, 1, 0.15
5088, 1.2, 1, 0.15
5100, 1.8, 1, 0.15
5101, 1.85, 1, 0.15
5102, 1.9, 1, 0.15
5103, 1.95, 1, 0.15
5104, 2, 1, 0.15
5105, 2.05, 1, 0.15
5106, 2.1, 1, 0.15
5107, 2.15, 1, 0.15
5108, 2.2, 1, 0.15
5109, 2.25, 1, 0.15
5110, 2.3, 1, 0.15
5111, 2.35, 1, 0.15
5112, 2.4, 1, 0.15
5113, 2.45, 1, 0.15
5114, 2.5, 1, 0.15
5115, 2.55, 1, 0.15
5116, 2.6, 1, 0.15
5117, 2.65, 1, 0.15
5118, 2.7, 1, 0.15
5119, 2.75, 1, 0.15
5120, 2.8, 1, 0.15
5121, 2.85, 1, 0.15
5122, 2.9, 1, 0.15
5123, 2.95, 1, 0.15
5124, 3, 1, 0.15
5125, 0, 0, 0.2
5126, 0.05, 0, 0.2
5127, 0.1, 0, 0.2
5128, 0.15, 0, 0.2
5129, 0.2, 0, 0.2
5130, 0.25, 0, 0.2
5131, 0.3, 0, 0.2
5132, 0.35, 0, 0.2
5133, 0.4, 0, 0.2
5134, 0.45, 0, 0.2
5135, 0.5, 0, 0.2
5136, 0.55, 0, 0.2
5137, 0.6, 0, 0.2
5138, 0.65, 0, 0.2
5139, 0.7, 0, 0.2
5140, 0.75, 0, 0.2
5141, 0.8, 0, 0.2
5142, 0.85, 0, 0.2
5143, 0.9, 0, 0.2
5144, 0.95, 0, 0.2
5145, 1, 0, 0.2
5146, 1.05, 0, 0.2
5147, 1.1, 0, 0.2
5148, 1.15, 0, 0.2
5149, 1.2, 0, 0.2
5150, 1.25, 0, 0.2
5151, 1.3, 0, 0.2
5152, 1.35, 0, 0.2
5153, 1.4, 0, 0.2
5154, 1.45, 0, 0.2
5155, 1.5, 0, 0.2
5156, 1.55, 0, 0.2
5157, 1.6, 0, 0.2
5158, 1.65, 0, 0.2
5159, 1.7, 0, 0.2
5160, 1.75, 0, 0.2
5161, 1.8, 0, 0.2
5162, 1.85, 0, 0.2
5163, 1.9, 0, 0.2
5164, 1.95, 0, 0.2
5165, 2, 0, 0.2
5166, 2.05, 0, 0.2
5167, 2.1, 0, 0.2
5168, 2.15, 0, 0.2
5169, 2.2, 0, 0.2
5170, 2.25, 0, 0.2
5171, 2.3, 0, 0.2
5172, 2.35, 0, 0.2
5173, 2.4, 0, 0.2
5174, 2.45, 0, 0.2
5175, 2.5, 0, 0.2
5176, 2.55, 0, 0.2
5177, 2.6, 0, 0.2
5178, 2.65, 0, 0.2
5179, 2.7, 0, 0.2
5180, 2.75, 0, 0.2
5181, 2.8, 0, 0.2
5182, 2.85, 0, 0.2
5183, 2.9, 0, 0.2
5184, 2.95, 0, 0.2
5185, 3, 0, 0.2
5186, 0, 0.05, 0.2
5187, 0.05, 0.05, 0.2
5188, 0.1, 0.05, 0.2
5189, 0.15, 0.05, 0.2
5190, 0.2, 0.05, 0.2
5191, 0.25, 0.05, 0.2
5192, 0.3, 0.05, 0.2
5193, 0.35, 0.05, 0.2
5194, 0.4, 0.05, 0.2
5195, 0.45, 0.05, 0.2
5196, 0.5, 0.05, 0.2
5197, 0.55, 0.05, 0.2
5198, 0.6, 0.05, 0.2
5199, 0.65, 0.05, 0.2
5200, 0.7, 0.05, 0.2
5201, 0.75, 0.05, 0.2
5202, 0.8, 0.05, 0.2
5203, 0.85, 0.05, 0.2
5204, 0.9, 0.05, 0.2
5205, 0.95, 0.05, 0.2
5206, 1, 0.05, 0.2
5207, 1.05, 0.05, 0.2
5208, 1.1, 0.05, 0.2
5209, 1.15, 0.05, 0.2
5210, 1.2, 0.05, 0.2
5211, 1.25, 0.05, 0.2
5212, 1.3, 0.05, 0.2
5213, 1.35, 0.05, 0.2
5214, 1.4, 0.05, 0.2
5215, 1.45, 0.05, 0.2
5216, 1.5, 0.05, 0.2
5217, 1.55, 0.05, 0.2
5218, 1.6, 0.05, 0.2
5219, 1.65, 0.05, 0.2
5220, 1.7, 0.05, 0.2
5221, 1.75, 0.05, 0.2
5222, 1.8, 0.05, 0.2
5223, 1.85, 0.05, 0.2
5224, 1.9, 0.05, 0.2
5225, 1.95, 0.05, 0.2
5226, 2, 0.05, 0.2
5227, 2.05, 0.05, 0.2
5228, 2.1, 0.05, 0.2
5229, 2.15, 0.05, 0.2
5230, 2.2, 0.05, 0.2
5231, 2.25, 0.05, 0.2
5232, 2.3, 0.05, 0.2
5233, 2.35, 0.05, 0.2
5234, 2.4, 0.05, 0.2
5235, 2.45, 0.05, 0.2
5236, 2.5, 0.05, 0.2
5237, 2.55, 0.05, 0.2
5238, 2.6, 0.05, 0.2
5239, 2.65, 0.05, 0.2
5240, 2.7, 0.05, 0.2
5241, 2.75, 0.05, 0.2
5242, 2.8, 0.05, 0.2
5243, 2.85, 0.05, 0.2
5244, 2.9, 0.05, 0.2
5245, 2.95, 0.05, 0.2
5246, 3, 0.05, 0.2
5247, 0, 0.1, 0.2
5248, 0.05, 0.1, 0.2
5249, 0.1, 0.1, 0.2
5250, 0.15, 0.1, 0.2
5251, 0.2, 0.1, 0.2
5252, 0.25, 0.1, 0.2
5253, 0.3, 0.1, 0.2
5254, 0.35, 0.1, 0.2
5255, 0.4, 0.1, 0.2
5256, 0.45, 0.1, 0.2
5257, 0.5, 0.1, 0.2
5258, 0.55, 0.1, 0.2
5259, 0.6, 0.1, 0.2
5260, 0.65, 0.1, 0.2
5261, 0.7, 0.1, 0.2
5262, 0.75, 0.1, 0.2
5263, 0.8, 0.1, 0.2
5264, 0.85, 0.1, 0.2
5265, 0.9, 0.1, 0.2
5266, 0.95, 0.1, 0.2
5267, 1, 0.1, 0.2
5268, 1.05, 0.1, 0.2
5269, 1.1, 0.1, 0.2
5270, 1.15, 0.1, 0.2
5271, 1.2, 0.1, 0.2
5272, 1.25, 0.1, 0.2
5273, 1.3, 0.1, 0.2
5274, 1.35, 0.1, 0.2
5275, 1.4, 0.1, 0.2
5276, 1.45, 0.1, 0.2
5277, 1.5, 0.1, 0.2
5278, 1.55, 0.1, 0.2
5279, 1.6, 0.1, 0.2
5280, 1.65, 0.1, 0.2
5281, 1.7, 0.1, 0.2
5282, 1.75, 0.1, 0.2
5283, 1.8, 0.1, 0.2
5284, 1.85, 0.1, 0.2
5285, 1.9, 0.1, 0.2
5286, 1.95, 0.1, 0.2
5287, 2, 0.1, 0.2
5288, 2.05, 0.1, 0.2
5289, 2.1, 0.1, 0.2
5290, 2.15, 0.1, 0.2
5291, 2.2, 0.1, 0.2
5292, 2.25, 0.1, 0.2
5293, 2.3, 0.1, 0.2
5294, 2.35, 0.1, 0.2
5295, 2.4, 0.1, 0.2
5296, 2.45, 0.1, 0.2
5297, 2.5, 0.1, 0.2
5298, 2.55, 0.1, 0.2
5299, 2.6, 0.1, 0.2
5300, 2.65, 0.1, 0.2
5301, 2.7, 0.1, 0.2
5302, 2.75, 0.1, 0.2
5303, 2.8, 0.1, 0.2
5304, 2.85, 0.1, 0.2
5305, 2.9, 0.1, 0.2
5306, 2.95, 0.1, 0.2
5307, 3, 0.1, 0.2
5308, 0, 0.15, 0.2
5309, 0.05, 0.15, 0.2
5310, 0.1, 0.15, 0.2
5311, 0.15, 0.15, 0.2
5312, 0.2, 0.15, 0.2
5313, 0.25, 0.15, 0.2
5314, 0.3, 0.15, 0.2
5315, 0.35, 0.15, 0.2
5316, 0.4, 0.15, 0.2
5317, 0.45, 0.15, 0.2
5318, 0.5, 0.15, 0.2
5319, 0.55, 0.15, 0.2
5320, 0.6, 0.15, 0.2
5321, 0.65, 0.15, 0.2
5322, 0.7, 0.15, 0.2
5323, 0.75, 0.15, 0.2
5324, 0.8, 0.15, 0.2
5325, 0.85, 0.15, 0.2
5326, 0.9, 0.15, 0.2
5327, 0.95, 0.15, 0.2
5328, 1, 0.15, 0.2
5329, 1.05, 0.15, 0.2
5330, 1.1, 0.15, 0.2
5331, 1.15, 0.15, 0.2
5332, 1.2, 0.15, 0.2
5333, 1.25, 0.15, 0.2
5334, 1.3, 0.15, 0.2
5335, 1.35, 0.15, 0.2
5336, 1.4, 0.15, 0.2
5337, 1.45, 0.15, 0.2
5338, 1.5, 0.15, 0.2
5339, 1.55, 0.15, 0.2
5340, 1.6, 0.15, 0.2
5341, 1.65, 0.15, 0.2
5342, 1.7, 0.15, 0.2
5343, 1.75, 0.15, 0.2
5344, 1.8, 0.15, 0.2
5345, 1.85, 0.15, 0.2
5346, 1.9, 0.15, 0.2
5347, 1.95, 0.15, 0.2
5348, 2, 0.15, 0.2
5349, 2.05, 0.15, 0.2
5350, 2.1, 0.15, 0.2
5351, 2.15, 0.15, 0.2
5352, 2.2, 0.15, 0.2
5353, 2.25, 0.15, 0.2
5354, 2.3, 0.15, 0.2
5355, 2.35, 0.15, 0.2
5356, 2.4, 0.15, 0.2
5357, 2.45, 0.15, 0.2
5358, 2.5, 0.15, 0.2
5359, 2.55, 0.15, 0.2
5360, 2.6, 0.15, 0.2
5361, 2.65, 0.15, 0.2
5362, 2.7, 0.15, 0.2
5363, 2.75, 0.15, 0.2
5364, 2.8, 0.15, 0.2
5365, 2.85, 0.15, 0.2
5366, 2.9, 0.15, 0.2
5367, 2.95, 0.15, 0.2
5368, 3, 0.15, 0.2
5369, 0, 0.2, 0.2
5370, 0.05, 0.2, 0.2
5371, 0.1, 0.2, 0.2
5372, 0.15, 0.2, 0.2
5373, 0.2, 0.2, 0.2
5374, 0.25, 0.2, 0.2
5375, 0.3, 0.2, 0.2
5376, 0.35, 0.2, 0.2
5377, 0.4, 0.2, 0.2
5378, 0.45, 0.2, 0.2
5379, 0.5, 0.2, 0.2
5380, 0.55, 0.2, 0.2
5381, 0.6, 0.2, 0.2
5382, 0.65, 0.2, 0.2
5383, 0.7, 0.2, 0.2
5384, 0.75, 0.2, 0.2
5385, 0.8, 0.2, 0.2
5386, 0.85, 0.2, 0.2
5387, 0.9, 0.2, 0.2
5388, 0.95, 0.2, 0.2
5389, 1, 0.2, 0.2
5390, 1.05, 0.2, 0.2
5391, 1.1, 0.2, 0.2
5392, 1.15, 0.2, 0.2
5393, 1.2, 0.2, 0.2
5394, 1.25, 0.2, 0.2
5395, 1.3, 0.2, 0.2
5396, 1.35, 0.2, 0.2
5397, 1.4, 0.2, 0.2
5398, 1.45, 0.2, 0.2
5399, 1.5, 0.2, 0.2
5400, 1.55, 0.2, 0.2
5401, 1.6, 0.2, 0.2
5402, 1.65, 0.2, 0.2
5403, 1.7, 0.2, 0.2
5404, 1.75, 0.2, 0.2
5405, 1.8, 0.2, 0.2
5406, 1.85, 0.2, 0.2
5407, 1.9, 0.2, 0.2
5408, 1.95, 0.2, 0.2
5409, 2, 0.2, 0.2
5410, 2.05, 0.2, 0.2
5411, 2.1, 0.2, 0.2
5412, 2.15, 0.2, 0.2
5413, 2.2, 0.2, 0.2
5414, 2.25, 0.2, 0.2
5415, 2.3, 0.2, 0.2
5416, 2.35, 0.2, 0.2
5417, 2.4, 0.2, 0.2
5418, 2.45, 0.2, 0.2
5419, 2.5, 0.2, 0.2
5420, 2.55, 0.2, 0.2
5421, 2.6, 0.2, 0.2
5422, 2.65, 0.2, 0.2
5423, 2.7, 0.2, 0.2
5424, 2.75, 0.2, 0.2
5425, 2.8, 0.2, 0.2
5426, 2.85, 0.2, 0.2
5427, 2.9, 0.2, 0.2
5428, 2.95, 0.2, 0.2
5429, 3, 0.2, 0.2
5430, 0, 0.25, 0.2
5431, 0.05, 0.25, 0.2
5432, 0.1, 0.25, 0.2
5433, 0.15, 0.25, 0.2
5434, 0.2, 0.25, 0.2
5435, 0.25, 0.25, 0.2
5436, 0.3, 0.25, 0.2
5437, 0.35, 0.25, 0.2
5438, 0.4, 0.25, 0.2
5439, 0.45, 0.25, 0.2
5440, 0.5, 0.25, 0.2
5441, 0.55, 0.25, 0.2
5442, 0.6, 0.25, 0.2
5443, 0.65, 0.25, 0.2
5444, 0.7, 0.25, 0.2
5445, 0.75, 0.25, 0.2
5446, 0.8, 0.25, 0.2
5447, 0.85, 0.25, 0.2
5448, 0.9, 0.25, 0.2
5449, 0.95, 0.25, 0.2
5450, 1, 0.25, 0.2
5451, 1.05, 0.25, 0.2
5452, 1.1, 0.25, 0.2
5453, 1.15, 0.25, 0.2
5454, 1.2, 0.25, 0.2
5455, 1.25, 0.25, 0.2
5456, 1.3, 0.25, 0.2
5457, 1.35, 0.25, 0.2
5458, 1.4, 0.25, 0.2
5459, 1.45, 0.25, 0.2
5460, 1.5, 0.25, 0.2
5461, 1.55, 0.25, 0.2
5462, 1.6, 0.25, 0.2
5463, 1.65, 0.25, 0.2
5464, 1.7, 0.25, 0.2
5465, 1.75, 0.25, 0.2
5466, 1.8, 0.25, 0.2
5467, 1.85, 0.25, 0.2
5468, 1.9, 0.25, 0.2
5469, 1.95, 0.25, 0.2
5470, 2, 0.25, 0.2
5471, 2.05, 0.25, 0.2
5472, 2.1, 0.25, 0.2
5473, 2.15, 0.25, 0.2
5474, 2.2, 0.25, 0.2
5475, 2.25, 0.25, 0.2
5476, 2.3, 0.25, 0.2
5477, 2.35, 0.25, 0.2
5478, 2.4, 0.25, 0.2
5479, 2.45, 0.25, 0.2
5480, 2.5, 0.25, 0.2
5481, 2.55, 0.25, 0.2
5482, 2.6, 0.25, 0.2
5483, 2.65, 0.25, 0.2
5484, 2.7, 0.25, 0.2
5485, 2.75, 0.25, 0.2
5486, 2.8, 0.25, 0.2
5487, 2.85, 0.25, 0.2
5488, 2.9, 0.25, 0.2
5489, 2.95, 0.25, 0.2
5490, 3, 0.25, 0.2
5491, 0, 0.3, 0.2
5492, 0.05, 0.3, 0.2
5493, 0.1, 0.3, 0.2
5494, 0.15, 0.3, 0.2
5495, 0.2, 0.3, 0.2
5496, 0.25, 0.3, 0.2
5497, 0.3, 0.3, 0.2
5498, 0.35, 0.3, 0.2
5499, 0.4, 0.3, 0.2
5500, 0.45, 0.3, 0.2
5501, 0.5, 0.3, 0.2
5502, 0.55, 0.3, 0.2
5503, 0.6, 0.3, 0.2
5504, 0.65, 0.3, 0.2
5505, 0.7, 0.3, 0.2
5506, 0.75, 0.3, 0.2
5507, 0.8, 0.3, 0.2
5508, 0.85, 0.3, 0.2
5509, 0.9, 0.3, 0.2
5510, 0.95, 0.3, 0.2
5511, 1, 0.3, 0.2
5512, 1.05, 0.3, 0.2
5513, 1.1, 0.3, 0.2
5514, 1.15, 0.3, 0.2
5515, 1.2, 0.3, 0.2
5516, 1.25, 0.3, 0.2
5517, 1.3, 0.3, 0.2
5518, 1.35, 0.3, 0.2
5519, 1.4, 0.3, 0.2
5520, 1.45, 0.3, 0.2
5521, 1.5, 0.3, 0.2
5522, 1.55, 0.3, 0.2
5523, 1.6, 0.3, 0.2
5524, 1.65, 0.3, 0.2
5525, 1.7, 0.3, 0.2
5526, 1.75, 0.3, 0.2
5527, 1.8, 0.3, 0.2
5528, 1.85, 0.3, 0.2
5529, 1.9, 0.3, 0.2
5530, 1.95, 0.3, 0.2
5531, 2, 0.3, 0.2
5532, 2.05, 0.3, 0.2
5533, 2.1, 0.3, 0.2
5534, 2.15, 0.3, 0.2
5535, 2.2, 0.3, 0.2
5536, 2.25, 0.3, 0.2
5537, 2.3, 0.3, 0.2
5538, 2.35, 0.3, 0.2
5539, 2.4, 0.3, 0.2
5540, 2.45, 0.3, 0.2
5541, 2.5, 0.3, 0.2
5542, 2.55, 0.3, 0.2
5543, 2.6, 0.3, 0.2
5544, 2.65, 0.3, 0.2
5545, 2.7, 0.3, 0.2
5546, 2.75, 0.3, 0.2
5547, 2.8, 0.3, 0.2
5548, 2.85, 0.3, 0.2
5549, 2.9, 0.3, 0.2
5550, 2.95, 0.3, 0.2
5551, 3, 0.3, 0.2
5552, 0, 0.35, 0.2
5553, 0.05, 0.35, 0.2
5554, 0.1, 0.35, 0.2
5555, 0.15, 0.35, 0.2
5556, 0.2, 0.35, 0.2
5557, 0.25, 0.35, 0.2
5558, 0.3, 0.35, 0.2
5559, 0.35, 0.35, 0.2
5560, 0.4, 0.35, 0.2
5561, 0.45, 0.35, 0.2
5562, 0.5, 0.35, 0.2
5563, 0.55, 0.35, 0.2
5564, 0.6, 0.35, 0.2
5565, 0.65, 0.35, 0.2
5566, 0.7, 0.35, 0.2
5567, 0.75, 0.35, 0.2
5568, 0.8, 0.35, 0.2
5569, 0.85, 0.35, 0.2
5570, 0.9, 0.35, 0.2
5571, 0.95, 0.35, 0.2
5572, 1, 0.35, 0.2
5573, 1.05, 0.35, 0.2
5574, 1.1, 0.35, 0.2
5575, 1.15, 0.35, 0.2
5576, 1.2, 0.35, 0.2
5577, 1.25, 0.35, 0.2
5578, 1.3, 0.35, 0.2
5579, 1.35, 0.35, 0.2
5580, 1.4, 0.35, 0.2
5581, 1.45, 0.35, 0.2
5582, 1.5, 0.35, 0.2
5583, 1.55, 0.35, 0.2
5584, 1.6, 0.35, 0.2
5585, 1.65, 0.35, 0.2
5586, 1.7, 0.35, 0.2
5587, 1.75, 0.35, 0.2
5588, 1.8, 0.35, 0.2
5589, 1.85, 0.35, 0.2
5590, 1.9, 0.35, 0.2
5591, 1.95, 0.35, 0.2
5592, 2, 0.35, 0.2
5593, 2.05, 0.35, 0.2
5594, 2.1, 0.35, 0.2
5595, 2.15, 0.35, 0.2
5596, 2.2, 0.35, 0.2
5597, 2.25, 0.35, 0.2
5598, 2.3, 0.35, 0.2
5599, 2.35, 0.35, 0.2
5600, 2.4, 0.35, 0.2
5601, 2.45, 0.35, 0.2
5602, 2.5, 0.35, 0.2
5603, 2.55, 0.35, 0.2
5604, 2.6, 0.35, 0.2
5605, 2.65, 0.35, 0.2
5606, 2.7, 0.35, 0.2
5607, 2.75, 0.35, 0.2
5608, 2.8, 0.35, 0.2
5609, 2.85, 0.35, 0.2
5610, 2.9, 0.35, 0.2
5611, 2.95, 0.35, 0.2
5612, 3, 0.35, 0.2
5613, 0, 0.4, 0.2
5614, 0.05, 0.4, 0.2
5615, 0.1, 0.4, 0.2
5616, 0.15, 0.4, 0.2
5617, 0.2, 0.4, 0.2
5618, 0.25, 0.4, 0.2
5619, 0.3, 0.4, 0.2
5620, 0.35, 0.4, 0.2
5621, 0.4, 0.4, 0.2
5622, 0.45, 0.4, 0.2
5623, 0.5, 0.4, 0.2
5624, 0.55, 0.4, 0.2
5625, 0.6, 0.4, 0.2
5626, 0.65, 0.4, 0.2
5627, 0.7, 0.4, 0.2
5628, 0.75, 0.4, 0.2
5629, 0.8, 0.4, 0.2
5630, 0.85, 0.4, 0.2
5631, 0.9, 0.4, 0.2
5632, 0.95, 0.4, 0.2
5633, 1, 0.4, 0.2
5634, 1.05, 0.4, 0.2
5635, 1.1, 0.4, 0.2
5636, 1.15, 0.4, 0.2
5637, 1.2, 0.4, 0.2
5638, 1.25, 0.4, 0.2
5639, 1.3, 0.4, 0.2
5640, 1.35, 0.4, 0.2
5641, 1.4, 0.4, 0.2
5642, 1.45, 0.4, 0.2
5643, 1.5, 0.4, 0.2
5644, 1.55, 0.4, 0.2
5645, 1.6, 0.4, 0.2
5646, 1.65, 0.4, 0.2
5647, 1.7, 0.4, 0.2
5648, 1.75, 0.4, 0.2
5649, 1.8, 0.4, 0.2
5650, 1.85, 0.4, 0.2
5651, 1.9, 0.4, 0.2
5652, 1.95, 0.4, 0.2
5653, 2, 0.4, 0.2
5654, 2.05, 0.4, 0.2
5655, 2.1, 0.4, 0.2
5656, 2.15, 0.4, 0.2
5657, 2.2, 0.4, 0.2
5658, 2.25, 0.4, 0.2
5659, 2.3, 0.4, 0.2
5660, 2.35, 0.4, 0.2
5661, 2.4, 0.4, 0.2
5662, 2.45, 0.4, 0.2
5663, 2.5, 0.4, 0.2
5664, 2.55, 0.4, 0.2
5665, 2.6, 0.4, 0.2
5666, 2.65, 0.4, 0.2
5667, 2.7, 0.4, 0.2
5668, 2.75, 0.4, 0.2
5669, 2.8, 0.4, 0.2
5670, 2.85, 0.4, 0.2
5671, 2.9, 0.4, 0.2
5672, 2.95, 0.4, 0.2
5673, 3, 0.4, 0.2
5674, 0, 0.45, 0.2
5675, 0.05, 0.45, 0.2
5676, 0.1, 0.45, 0.2
5677, 0.15, 0.45, 0.2
5678, 0.2, 0.45, 0.2
5679, 0.25, 0.45, 0.2
5680, 0.3, 0.45, 0.2
5681, 0.35, 0.45, 0.2
5682, 0.4, 0.45, 0.2
5683, 0.45, 0.45, 0.2
5684, 0.5, 0.45, 0.2
5685, 0.55, 0.45, 0.2
5686, 0.6, 0.45, 0.2
5687, 0.65, 0.45, 0.2
5688, 0.7, 0.45, 0.2
5689, 0.75, 0.45, 0.2
5690, 0.8, 0.45, 0.2
5691, 0.85, 0.45, 0.2
5692, 0.9, 0.45, 0.2
5693, 0.95, 0.45, 0.2
5694, 1, 0.45, 0.2
5695, 1.05, 0.45, 0.2
5696, 1.1, 0.45, 0.2
5697, 1.15, 0.45, 0.2
5698, 1.2, 0.45, 0.2
5699, 1.25, 0.45, 0.2
5700, 1.3, 0.45, 0.2
5701, 1.35, 0.45, 0.2
5702, 1.4, 0.45, 0.2
5703, 1.45, 0.45, 0.2
5704, 1.5, 0.45, 0.2
5705, 1.55, 0.45, 0.2
5706, 1.6, 0.45, 0.2
5707, 1.65, 0.45, 0.2
5708, 1.7, 0.45, 0.2
5709, 1.75, 0.45, 0.2
5710, 1.8, 0.45, 0.2
5711, 1.85, 0.45, 0.2
5712, 1.9, 0.45, 0.2
5713, 1.95, 0.45, 0.2
5714, 2, 0.45, 0.2
5715, 2.05, 0.45, 0.2
5716, 2.1, 0.45, 0.2
5717, 2.15, 0.45, 0.2
5718, 2.2, 0.45, 0.2
5719, 2.25, 0.45, 0.2
5720, 2.3, 0.45, 0.2
5721, 2.35, 0.45, 0.2
5722, 2.4, 0.45, 0.2
5723, 2.45, 0.45, 0.2
5724, 2.5, 0.45, 0.2
5725, 2.55, 0.45, 0.2
5726, 2.6, 0.45, 0.2
5727, 2.65, 0.45, 0.2
5728, 2.7, 0.45, 0.2
5729, 2.75, 0.45, 0.2
5730, 2.8, 0.45, 0.2
5731, 2.85, 0.45, 0.2
5732, 2.9, 0.45, 0.2
5733, 2.95, 0.45, 0.2
5734, 3, 0.45, 0.2
5735, 0, 0.5, 0.2
5736, 0.05, 0.5, 0.2
5737, 0.1, 0.5, 0.2
5738, 0.15, 0.5, 0.2
5739, 0.2, 0.5, 0.2
5740, 0.25, 0.5, 0.2
5741, 0.3, 0.5, 0.2
5742, 0.35, 0.5, 0.2
5743, 0.4, 0.5, 0.2
5744, 0.45, 0.5, 0.2
5745, 0.5, 0.5, 0.2
5746, 0.55, 0.5, 0.2
5747, 0.6, 0.5, 0.2
5748, 0.65, 0.5, 0.2
5749, 0.7, 0.5, 0.2
5750, 0.75, 0.5, 0.2
5751, 0.8, 0.5, 0.2
5752, 0.85, 0.5, 0.2
5753, 0.9, 0.5, 0.2
5754, 0.95, 0.5, 0.2
5755, 1, 0.5, 0.2
5756, 1.05, 0.5, 0.2
5757, 1.1, 0.5, 0.2
5758, 1.15, 0.5, 0.2
5759, 1.2, 0.5, 0.2
5760, 1.25, 0.5, 0.2
5761, 1.3, 0.5, 0.2
5762, 1.35, 0.5, 0.2
5763, 1.4, 0.5, 0.2
5764, 1.45, 0.5, 0.2
5765, 1.5, 0.5, 0.2
5766, 1.55, 0.5, 0.2
5767, 1.6, 0.5, 0.2
5768, 1.65, 0.5, 0.2
5769, 1.7, 0.5, 0.2
5770, 1.75, 0.5, 0.2
5771, 1.8, 0.5, 0.2
5772, 1.85, 0.5, 0.2
5773, 1.9, 0.5, 0.2
5774, 1.95, 0.5, 0.2
5775, 2, 0.5, 0.2
5776, 2.05, 0.5, 0.2
5777, 2.1, 0.5, 0.2
5778, 2.15, 0.5, 0.2
5779, 2.2, 0.5, 0.2
5780, 2.25, 0.5, 0.2
5781, 2.3, 0.5, 0.2
5782, 2.35, 0.5, 0.2
5783, 2.4, 0.5, 0.2
5784, 2.45, 0.5, 0.2
5785, 2.5, 0.5, 0.2
5786, 2.55, 0.5, 0.2
5787, 2.6, 0.5, 0.2
5788, 2.65, 0.5, 0.2
5789, 2.7, 0.5, 0.2
5790, 2.75, 0.5, 0.2
5791, 2.8, 0.5, 0.2
5792, 2.85, 0.5, 0.2
5793, 2.9, 0.5, 0.2
5794, 2.95, 0.5, 0.2
5795, 3, 0.5, 0.2
5796, 0, 0.55, 0.2
5797, 0.05, 0.55, 0.2
5798, 0.1, 0.55, 0.2
5799, 0.15, 0.55, 0.2
5800, 0.2, 0.55, 0.2
5801, 0.25, 0.55, 0.2
5802, 0.3, 0.55, 0.2
5803, 0.35, 0.55, 0.2
5804, 0.4, 0.55, 0.2
5805, 0.45, 0.55, 0.2
5806, 0.5, 0.55, 0.2
5807, 0.55, 0.55, 0.2
5808, 0.6, 0.55, 0.2
5809, 0.65, 0.55, 0.2
5810, 0.7, 0.55, 0.2
5811, 0.75, 0.55, 0.2
5812, 0.8, 0.55, 0.2
5813, 0.85, 0.55, 0.2
5814, 0.9, 0.55, 0.2
5815, 0.95, 0.55, 0.2
5816, 1, 0.55, 0.2
5817, 1.05, 0.55, 0.2
5818, 1.1, 0.55, 0.2
5819, 1.15, 0.55, 0.2
5820, 1.2, 0.55, 0.2
5821, 1.25, 0.55, 0.2
5822, 1.3, 0.55, 0.2
5823, 1.35, 0.55, 0.2
5824, 1.4, 0.55, 0.2
5825, 1.45, 0.55, 0.2
5826, 1.5, 0.55, 0.2
5827, 1.55, 0.55, 0.2
5828, 1.6, 0.55, 0.2
5829, 1.65, 0.55, 0.2
5830, 1.7, 0.55, 0.2
5831, 1.75, 0.55, 0.2
5832, 1.8, 0.55, 0.2
5833, 1.85, 0.55, 0.2
5834, 1.9, 0.55, 0.2
5835, 1.95, 0.55, 0.2
5836, 2, 0.55, 0.2
5837, 2.05, 0.55, 0.2
5838, 2.1, 0.55, 0.2
5839, 2.15, 0.55, 0.2
5840, 2.2, 0.55, 0.2
5841, 2.25, 0.55, 0.2
5842, 2.3, 0.55, 0.2
5843, 2.35, 0.55, 0.2
5844, 2.4, 0.55, 0.2
5845, 2.45, 0.55, 0.2
5846, 2.5, 0.55, 0.2
5847, 2.55, 0.55, 0.2
5848, 2.6, 0.55, 0.2
5849, 2.65, 0.55, 0.2
5850, 2.7, 0.55, 0.2
5851, 2.75, 0.55, 0.2
5852, 2.8, 0.55, 0.2
5853, 2.85, 0.55, 0.2
5854, 2.9, 0.55, 0.2
5855, 2.95, 0.55, 0.2
5856, 3, 0.55, 0.2
5857, 0, 0.6, 0.2
5858, 0.05, 0.6, 0.2
5859, 0.1, 0.6, 0.2
5860, 0.15, 0.6, 0.2
5861, 0.2, 0.6, 0.2
5862, 0.25, 0.6, 0.2
5863, 0.3, 0.6, 0.2
5864, 0.35, 0.6, 0.2
5865, 0.4, 0.6, 0.2
5866, 0.45, 0.6, 0.2
5867, 0.5, 0.6, 0.2
5868, 0.55, 0.6, 0.2
5869, 0.6, 0.6, 0.2
5870, 0.65, 0.6, 0.2
5871, 0.7, 0.6, 0.2
5872, 0.75, 0.6, 0.2
5873, 0.8, 0.6, 0.2
5874, 0.85, 0.6, 0.2
5875, 0.9, 0.6, 0.2
5876, 0.95, 0.6, 0.2
5877, 1, 0.6, 0.2
5878, 1.05, 0.6, 0.2
5879, 1.1, 0.6, 0.2
5880, 1.15, 0.6, 0.2
5881, 1.2, 0.6, 0.2
5882, 1.25, 0.6, 0.2
5883, 1.3, 0.6, 0.2
5884, 1.35, 0.6, 0.2
5885, 1.4, 0.6, 0.2
5886, 1.45, 0.6, 0.2
5887, 1.5, 0.6, 0.2
5888, 1.55, 0.6, 0.2
5889, 1.6, 0.6, 0.2
5890, 1.65, 0.6, 0.2
5891, 1.7, 0.6, 0.2
5892, 1.75, 0.6, 0.2
5893, 1.8, 0.6, 0.2
5894, 1.85, 0.6, 0.2
5895, 1.9, 0.6, 0.2
5896, 1.95, 0.6, 0.2
5897, 2, 0.6, 0.2
5898, 2.05, 0.6, 0.2
5899, 2.1, 0.6, 0.2
5900, 2.15, 0.6, 0.2
5901, 2.2, 0.6, 0.2
5902, 2.25, 0.6, 0.2
5903, 2.3, 0.6, 0.2
5904, 2.35, 0.6, 0.2
5905, 2.4, 0.6, 0.2
5906, 2.45, 0.6, 0.2
5907, 2.5, 0.6, 0.2
5908, 2.55, 0.6, 0.2
5909, 2.6, 0.6, 0.2
5910, 2.65, 0.6, 0.2
5911, 2.7, 0.6, 0.2
5912, 2.75, 0.6, 0.2
5913, 2.8, 0.6, 0.2
5914, 2.85, 0.6, 0.2
5915, 2.9, 0.6, 0.2
5916, 2.95, 0.6, 0.2
5917, 3, 0.6, 0.2
5918, 0, 0.65, 0.2
5919, 0.05, 0.65, 0.2
5920, 0.1, 0.65, 0.2
5921, 0.15, 0.65, 0.2
5922, 0.2, 0.65, 0.2
5923, 0.25, 0.65, 0.2
5924, 0.3, 0.65, 0.2
5925, 0.35, 0.65, 0.2
5926, 0.4, 0.65, 0.2
5927, 0.45, 0.65, 0.2
5928, 0.5, 0.65, 0.2
5929, 0.55, 0.65, 0.2
5930, 0.6, 0.65, 0.2
5931, 0.65, 0.65, 0.2
5932, 0.7, 0.65, 0.2
5933, 0.75, 0.65, 0.2
5934, 0.8, 0.65, 0.2
5935, 0.85, 0.65, 0.2
5936, 0.9, 0.65, 0.2
5937, 0.95, 0.65, 0.2
5938, 1, 0.65, 0.2
5939, 1.05, 0.65, 0.2
5940, 1.1, 0.65, 0.2
5941, 1.15, 0.65, 0.2
5942, 1.2, 0.65, 0.2
5943, 1.25, 0.65, 0.2
5944, 1.3, 0.65, 0.2
5945, 1.35, 0.65, 0.2
5946, 1.4, 0.65, 0.2
5947, 1.45, 0.65, 0.2
5948, 1.5, 0.65, 0.2
5949, 1.55, 0.65, 0.2
5950, 1.6, 0.65, 0.2
5951, 1.65, 0.65, 0.2
5952, 1.7, 0.65, 0.2
5953, 1.75, 0.65, 0.2
5954, 1.8, 0.65, 0.2
5955, 1.85, 0.65, 0.2
5956, 1.9, 0.65, 0.2
5957, 1.95, 0.65, 0.2
5958, 2, 0.65, 0.2
5959, 2.05, 0.65, 0.2
5960, 2.1, 0.65, 0.2
5961, 2.15, 0.65, 0.2
5962, 2.2, 0.65, 0.2
5963, 2.25, 0.65, 0.2
5964, 2.3, 0.65, 0.2
5965, 2.35, 0.65, 0.2
5966, 2.4, 0.65, 0.2
5967, 2.45, 0.65, 0.2
5968, 2.5, 0.65, 0.2
5969, 2.55, 0.65, 0.2
5970, 2.6, 0.65, 0.2
5971, 2.65, 0.65, 0.2
5972, 2.7, 0.65, 0.2
5973, 2.75, 0.65, 0.2
5974, 2.8, 0.65, 0.2
5975, 2.85, 0.65, 0.2
5976, 2.9, 0.65, 0.2
5977, 2.95, 0.65, 0.2
5978, 3, 0.65, 0.2
5979, 0, 0.7, 0.2
5980, 0.05, 0.7, 0.2
5981, 0.1, 0.7, 0.2
5982, 0.15, 0.7, 0.2
5983, 0.2, 0.7, 0.2
5984, 0.25, 0.7, 0.2
5985, 0.3, 0.7, 0.2
5986, 0.35, 0.7, 0.2
5987, 0.4, 0.7, 0.2
5988, 0.45, 0.7, 0.2
5989, 0.5, 0.7, 0.2
5990, 0.55, 0.7, 0.2
5991, 0.6, 0.7, 0.2
5992, 0.65, 0.7, 0.2
5993, 0.7, 0.7, 0.2
5994, 0.75, 0.7, 0.2
5995, 0.8, 0.7, 0.2
5996, 0.85, 0.7, 0.2
5997, 0.9, 0.7, 0.2
5998, 0.95, 0.7, 0.2
5999, 1, 0.7, 0.2
6000, 1.05, 0.7, 0.2
6001, 1.1, 0.7, 0.2
6002, 1.15, 0.7, 0.2
6003, 1.2, 0.7, 0.2
6004, 1.25, 0.7, 0.2
6005, 1.3, 0.7, 0.2
6006, 1.35, 0.7, 0.2
6007, 1.4, 0.7, 0.2
6008, 1.45, 0.7, 0.2
6009, 1.5, 0.7, 0.2
6010, 1.55, 0.7, 0.2
6011, 1.6, 0.7, 0.2
6012, 1.65, 0.7, 0.2
6013, 1.7, 0.7, 0.2
6014, 1.75, 0.7, 0.2
6015, 1.8, 0.7, 0.2
6016, 1.85, 0.7, 0.2
6017, 1.9, 0.7, 0.2
6018, 1.95, 0.7, 0.2
6019, 2, 0.7, 0.2
6020, 2.05, 0.7, 0.2
6021, 2.1, 0.7, 0.2
6022, 2.15, 0.7, 0.2
6023, 2.2, 0.7, 0.2
6024, 2.25, 0.7, 0.2
6025, 2.3, 0.7, 0.2
6026, 2.35, 0.7, 0.2
6027, 2.4, 0.7, 0.2
6028, 2.45, 0.7, 0.2
6029, 2.5, 0.7, 0.2
6030, 2.55, 0.7, 0.2
6031, 2.6, 0.7, 0.2
6032, 2.65, 0.7, 0.2
6033, 2.7, 0.7, 0.2
6034, 2.75, 0.7, 0.2
6035, 2.8, 0.7, 0.2
6036, 2.85, 0.7, 0.2
6037, 2.9, 0.7, 0.2
6038, 2.95, 0.7, 0.2
6039, 3, 0.7, 0.2
6040, 0, 0.75, 0.2
6041, 0.05, 0.75, 0.2
6042, 0.1, 0.75, 0.2
6043, 0.15, 0.75, 0.2
6044, 0.2, 0.75, 0.2
6045, 0.25, 0.75, 0.2
6046, 0.3, 0.75, 0.2
6047, 0.35, 0.75, 0.2
6048, 0.4, 0.75, 0.2
6049, 0.45, 0.75, 0.2
6050, 0.5, 0.75, 0.2
6051, 0.55, 0.75, 0.2
6052, 0.6, 0.75, 0.2
6053, 0.65, 0.75, 0.2
6054, 0.7, 0.75, 0.2
6055, 0.75, 0.75, 0.2
6056, 0.8, 0.75, 0.2
6057, 0.85, 0.75, 0.2
6058, 0.9, 0.75, 0.2
6059, 0.95, 0.75, 0.2
6060, 1, 0.75, 0.2
6061, 1.05, 0.75, 0.2
6062, 1.1, 0.75, 0.2
6063, 1.15, 0.75, 0.2
6064, 1.2, 0.75, 0.2
6076, 1.8, 0.75, 0.2
6077, 1.85, 0.75, 0.2
6078, 1.9, 0.75, 0.2
6079, 1.95, 0.75, 0.2
6080, 2, 0.75, 0.2
6081, 2.05, 0.75, 0.2
6082, 2.1, 0.75, 0.2
6083, 2.15, 0.75, 0.2
6084, 2.2, 0.75, 0.2
6085, 2.25, 0.75, 0.2
6086, 2.3, 0.75, 0.2
6087, 2.35, 0.75, 0.2
6088, 2.4, 0.75, 0.2
6089, 2.45, 0.75, 0.2
6090, 2.5, 0.75, 0.2
6091, 2.55, 0.75, 0.2
6092, 2.6, 0.75, 0.2
6093, 2.65, 0.75, 0.2
6094, 2.7, 0.75, 0.2
6095, 2.75, 0.75, 0.2
6096, 2.8, 0.75, 0.2
6097, 2.85, 0.75, 0.2
6098, 2.9, 0.75, 0.2
6099, 2.95, 0.75, 0.2
6100, 3, 0.75, 0.2
6101, 0, 0.8, 0.2
6102, 0.05, 0.8, 0.2
6103, 0.1, 0.8, 0.2
6104, 0.15, 0.8, 0.2
6105, 0.2, 0.8, 0.2
6106, 0.25, 0.8, 0.2
6107, 0.3, 0.8, 0.2
6108, 0.35, 0.8, 0.2
6109, 0.4, 0.8, 0.2
6110, 0.45, 0.8, 0.2
6111, 0.5, 0.8, 0.2
6112, 0.55, 0.8, 0.2
6113, 0.6, 0.8, 0.2
6114, 0.65, 0.8, 0.2
6115, 0.7, 0.8, 0.2
6116, 0.75, 0.8, 0.2
6117, 0.8, 0.8, 0.2
6118, 0.85, 0.8, 0.2
6119, 0.9, 0.8, 0.2
6120, 0.95, 0.8, 0.2
6121, 1, 0.8, 0.2
6122, 1.05, 0.8, 0.2
6123, 1.1, 0.8, 0.2
6124, 1.15, 0.8, 0.2
6125, 1.2, 0.8, 0.2
6137, 1.8, 0.8, 0.2
6138, 1.85, 0.8, 0.2
6139, 1.9, 0.8, 0.2
6140, 1.95, 0.8, 0.2
6141, 2, 0.8, 0.2
6142, 2.05, 0.8, 0.2
6143, 2.1, 0.8, 0.2
6144, 2.15, 0.8, 0.2
6145, 2.2, 0.8, 0.2
6146, 2.25, 0.8, 0.2
6147, 2.3, 0.8, 0.2
6148, 2.35, 0.8, 0.2
6149, 2.4, 0.8, 0.2
6150, 2.45, 0.8, 0.2
6151, 2.5, 0.8, 0.2
6152, 2.55, 0.8, 0.2
6153, 2.6, 0.8, 0.2
6154, 2.65, 0.8, 0.2
6155, 2.7, 0.8, 0.2
6156, 2.75, 0.8, 0.2
6157, 2.8, 0.8, 0.2
6158, 2.85, 0.8, 0.2
6159, 2.9, 0.8, 0.2
6160, 2.95, 0.8, 0.2
6161, 3, 0.8, 0.2
6162, 0, 0.85, 0.2
6163, 0.05, 0.85, 0.2
6164, 0.1, 0.85, 0.2
6165, 0.15, 0.85, 0.2
6166, 0.2, 0.85, 0.2
6167, 0.25, 0.85, 0.2
6168, 0.3, 0.85, 0.2
6169, 0.35, 0.85, 0.2
6170, 0.4, 0.85, 0.2
6171, 0.45, 0.85, 0.2
6172, 0.5, 0.85, 0.2
6173, 0.55, 0.85, 0.2
6174, 0.6, 0.85, 0.2
6175, 0.65, 0.85, 0.2
6176, 0.7, 0.85, 0.2
6177, 0.75, 0.85, 0.2
6178, 0.8, 0.85, 0.2
6179, 0.85, 0.85, 0.2
6180, 0.9, 0.85, 0.2
6181, 0.95, 0.85, 0.2
6182, 1, 0.85, 0.2
6183, 1.05, 0.85, 0.2
6184, 1.1, 0.85, 0.2
6185, 1.15, 0.85, 0.2
6186, 1.2, 0.85, 0.2
6198, 1.8, 0.85, 0.2
6199, 1.85, 0.85, 0.2
6200, 1.9, 0.85, 0.2
6201, 1.95, 0.85, 0.2
6202, 2, 0.85, 0.2
6203, 2.05, 0.85, 0.2
6204, 2.1, 0.85, 0.2
6205, 2.15, 0.85, 0.2
6206, 2.2, 0.85, 0.2
6207, 2.25, 0.85, 0.2
6208, 2.3, 0.85, 0.2
6209, 2.35, 0.85, 0.2
6210, 2.4, 0.85, 0.2
6211, 2.45, 0.85, 0.2
6212, 2.5, 0.85, 0.2
6213, 2.55, 0.85, 0.2
6214, 2.6, 0.85, 0.2
6215, 2.65, 0.85, 0.2
6216, 2.7, 0.85, 0.2
6217, 2.75, 0.85, 0.2
6218, 2.8, 0.85, 0.2
6219, 2.85, 0.85, 0.2
6220, 2.9, 0.85, 0.2
6221, 2.95, 0.85, 0.2
6222, 3, 0.85, 0.2
6223, 0, 0.9, 0.2
6224, 0.05, 0.9, 0.2
6225, 0.1, 0.9, 0.2
6226, 0.15, 0.9, 0.2
6227, 0.2, 0.9, 0.2
6228, 0.25, 0.9, 0.2
6229, 0.3, 0.9, 0.2
6230, 0.35, 0.9, 0.2
6231, 0.4, 0.9, 0.2
6232, 0.45, 0.9, 0.2
6233, 0.5, 0.9, 0.2
6234, 0.55, 0.9, 0.2
6235, 0.6, 0.9, 0.2
6236, 0.65, 0.9, 0.2
6237, 0.7, 0.9, 0.2
6238, 0.75, 0.9, 0.2
6239, 0.8, 0.9, 0.2
6240, 0.85, 0.9, 0.2
6241, 0.9, 0.9, 0.2
6242, 0.95, 0.9, 0.2
6243, 1, 0.9, 0.2
6244, 1.05, 0.9, 0.2
6245, 1.1, 0.9, 0.2
6246, 1.15, 0.9, 0.2
6247, 1.2, 0.9, 0.2
6259, 1.8, 0.9, 0.2
6260, 1.85, 0.9, 0.2
6261, 1.9, 0.9, 0.2
6262, 1.95, 0.9, 0.2
6263, 2, 0.9, 0.2
6264, 2.05, 0.9, 0.2
6265, 2.1, 0.9, 0.2
6266, 2.15, 0.9, 0.2
6267, 2.2, 0.9, 0.2
6268, 2.25, 0.9, 0.2
6269, 2.3, 0.9, 0.2
6270, 2.35, 0.9, 0.2
6271, 2.4, 0.9, 0.2
6272, 2.45, 0.9, 0.2
6273, 2.5, 0.9, 0.2
6274, 2.55, 0.9, 0.2
6275, 2.6, 0.9, 0.2
6276, 2.65, 0.9, 0.2
6277, 2.7, 0.9, 0.2
6278, 2.75, 0.9, 0.2
6279, 2.8, 0.9, 0.2
6280, 2.85, 0.9, 0.2
6281, 2.9, 0.9, 0.2
6282, 2.95, 0.9, 0.2
6283, 3, 0.9, 0.2
6284, 0, 0.95, 0.2
6285, 0.05, 0.95, 0.2
6286, 0.1, 0.95, 0.2
6287, 0.15, 0.95, 0.2
6288, 0.2, 0.95, 0.2
6289, 0.25, 0.95, 0.2
6290, 0.3, 0.95, 0.2
6291, 0.35, 0.95, 0.2
6292, 0.4, 0.95, 0.2
6293, 0.45, 0.95, 0.2
6294, 0.5, 0.95, 0.2
6295, 0.55, 0.95, 0.2
6296, 0.6, 0.95, 0.2
6297, 0.65, 0.95, 0.2
6298, 0.7, 0.95, 0.2
6299, 0.75, 0.95, 0.2
6300, 0.8, 0.95, 0.2
6301, 0.85, 0.95, 0.2
6302, 0.9, 0.95, 0.2
6303, 0.95, 0.95, 0.2
6304, 1, 0.95, 0.2
6305, 1.05, 0.95, 0.2
6306, 1.1, 0.95, 0.2
6307, 1.15, 0.95, 0.2
6308, 1.2, 0.95, 0.2
6320, 1.8, 0.95, 0.2
6321, 1.85, 0.95, 0.2
6322, 1.9, 0.95, 0.2
6323, 1.95, 0.95, 0.2
6324, 2, 0.95, 0.2
6325, 2.05, 0.95, 0.2
6326, 2.1, 0.95, 0.2
6327, 2.15, 0.95, 0.2
6328, 2.2, 0.95, 0.2
6329, 2.25, 0.95, 0.2
6330, 2.3, 0.95, 0.2
6331, 2.35, 0.95, 0.2
6332, 2.4, 0.95, 0.2
6333, 2.45, 0.95, 0.2
6334, 2.5, 0.95, 0.2
6335, 2.55, 0.95, 0.2
6336, 2.6, 0.95, 0.2
6337, 2.65, 0.95, 0.2
6338, 2.7, 0.95, 0.2
6339, 2.75, 0.95, 0.2
6340, 2.8, 0.95, 0.2
6341, 2.85, 0.95, 0.2
6342, 2.9, 0.95, 0.2
6343, 2.95, 0.95, 0.2
6344, 3, 0.95, 0.2
6345, 0, 1, 0.2
6346, 0.05, 1, 0.2
6347, 0.1, 1, 0.2
6348, 0.15, 1, 0.2
6349, 0.2, 1, 0.2
6350, 0.25, 1, 0.2
6351, 0.3, 1, 0.2
6352, 0.35, 1, 0.2
6353, 0.4, 1, 0.2
6354, 0.45, 1, 0.2
6355, 0.5, 1, 0.2
6356, 0.55, 1, 0.2
6357, 0.6, 1, 0.2
6358, 0.65, 1, 0.2
6359, 0.7, 1, 0.2
6360, 0.75, 1, 0.2
6361, 0.8, 1, 0.2
6362, 0.85, 1, 0.2
6363, 0.9, 1, 0.2
6364, 0.95, 1, 0.2
6365, 1, 1, 0.2
6366, 1.05, 1, 0.2
6367, 1.1, 1, 0.2
6368, 1.15, 1, 0.2
6369, 1.2, 1, 0.2
6381, 1.8, 1, 0.2
6382, 1.85, 1, 0.2
6383, 1.9, 1, 0.2
6384, 1.95, 1, 0.2
6385, 2, 1, 0.2
6386, 2.05, 1, 0.2
6387, 2.1, 1, 0.2
6388, 2.15, 1, 0.2
6389, 2.2, 1, 0.2
6390, 2.25, 1, 0.2
6391, 2.3, 1, 0.2
6392, 2.35, 1, 0.2
6393, 2.4, 1, 0.2
6394, 2.45, 1, 0.2
6395, 2.5, 1, 0.2
6396, 2.55, 1, 0.2
6397, 2.6, 1, 0.2
6398, 2.65, 1, 0.2
6399, 2.7, 1, 0.2
6400, 2.75, 1, 0.2
6401, 2.8, 1, 0.2
6402, 2.85, 1, 0.2
6403, 2.9, 1, 0.2
6404, 2.95, 1, 0.2
6405, 3, 1, 0.2
*ELEMENT, TYPE=C3D8, ELSET=EALL
1, 1, 2, 63, 62, 1282, 1283, 1344, 1343
2, 2, 3, 64, 63, 1283, 1284, 1345, 1344
3, 3, 4, 65, 64, 1284, 1285, 1346, 1345
4, 4, 5, 66, 65, 1285, 1286, 1347, 1346
5, 5, 6, 67, 66, 1286, 1287, 1348, 1347
6, 6, 7, 68, 67, 1287, 1288, 1349, 1348
7, 7, 8, 69, 68, 1288, 1289, 1350, 1349
8, 8, 9, 70, 69, 1289, 1290, 1351, 1350
9, 9, 10, 71, 70, 1290, 1291, 1352, 1351
10, 10, 11, 72, 71, 1291, 1292, 1353, 1352
11, 11, 12, 73, 72, 1292, 1293, 1354, 1353
12, 12, 13, 74, 73, 1293, 1294, 1355, 1354
13, 13, 14, 75, 74, 1294, 1295, 1356, 1355
14, 14, 15, 76, 75, 1295, 1296, 1357, 1356
15, 15, 16, 77, 76, 1296, 1297, 1358, 1357
16, 16, 17, 78, 77, 1297, 1298, 1359, 1358
17, 17, 18, 79, 78, 1298, 1299, 1360, 1359
18, 18, 19, 80, 79, 1299, 1300, 1361, 1360
19, 19, 20, 81, 80, 1300, 1301, 1362, 1361
20, 20, 21, 82, 81, 1301, 1302, 1363, 1362
21, 21, 22, 83, 82, 1302, 1303, 1364, 1363
22, 22, 23, 84, 83, 1303, 1304, 1365, 1364
23, 23, 24, 85, 84, 1304, 1305, 1366, 1365
24, 24, 25, 86, 85, 1305, 1306, 1367, 1366
25, 25, 26, 87, 86, 1306, 1307, 1368, 1367
26, 26, 27, 88, 87, 1307, 1308, 1369, 1368
27, 27, 28, 89, 88, 1308, 1309, 1370, 1369
28, 28, 29, 90, 89, 1309, 1310, 1371, 1370
29, 29, 30, 91, 90, 1310, 1311, 1372, 1371
30, 30, 31, 92, 91, 1311, 1312, 1373, 1372
31, 31, 32, 93, 92, 1312, 1313, 1374, 1373
32, 32, 33, 94, 93, 1313, 1314, 1375, 1374
33, 33, 34, 95, 94, 1314, 1315, 1376, 1375
34, 34, 35, 96, 95, 1315, 1316, 1377, 1376
35, 35, 36, 97, 96, 1316, 1317, 1378, 1377
36, 36, 37, 98, 97, 1317, 1318, 1379, 1378
37, 37, 38, 99, 98, 1318, 1319, 1380, 1379
38, 38, 39, 100, 99, 1319, 1320, 1381, 1380
39, 39, 40, 101, 100, 1320, 1321, 1382, 1381
40, 40, 41, 102, 101, 1321, 1322, 1383, 1382
41, 41, 42, 103, 102, 1322, 1323, 1384, 1383
42, 42, 43, 104, 103, 1323, 1324, 1385, 1384
43, 43, 44, 105, 104, 1324, 1325, 1386, 1385
44, 44, 45, 106, 105, 1325, 1326, 1387, 1386
45, 45, 46, 107, 106, 1326, 1327, 1388, 1387
46, 46, 47, 108, 107, 1327, 1328, 1389, 1388
47, 47, 48, 109, 108, 1328, 1329, 1390, 1389
48, 48, 49, 110, 109, 1329, 1330, 1391, 1390
49, 49, 50, 111, 110, 1330, 1331, 1392, 1391
50, 50, 51, 112, 111, 1331, 1332, 1393, 1392
51, 51, 52, 113, 112, 1332, 1333, 1394, 1393
52, 52, 53, 114, 113, 1333, 1334, 1395, 1394
53, 53, 54, 115, 114, 1334, 1335, 1396, 1395
54, 54, 55, 116, 115, 1335, 1336, 1397, 1396
55, 55, 56, 117, 116, 1336, 1337, 1398, 1397
56, 56, 57, 118, 117, 1337, 1338, 1399, 1398
57, 57, 58, 119, 118, 1338, 1339, 1400, 1399
58, 58, 59, 120, 119, 1339, 1340, 1401, 1400
59, 59, 60, 121, 120, 1340, 1341, 1402, 1401
60, 60, 61, 122, 121, 1341, 1342, 1403, 1402
61, 62, 63, 124, 123, 1343, 1344, 1405, 1404
62, 63, 64, 125, 124, 1344, 1345, 1406, 1405
63, 64, 65, 126, 125, 1345, 1346, 1407, 1406
64, 65, 66, 127, 126, 1346, 1347, 1408, 1407
65, 66, 67, 128, 127, 1347, 1348, 1409, 1408
66, 67, 68, 129, 128, 1348, 1349, 1410, 1409
67, 68, 69, 130, 129, 1349, 1350, 1411, 1410
68, 69, 70, 131, 130, 1350, 1351, 1412, 1411
69, 70, 71, 132, 131, 1351, 1352, 1413, 1412
70, 71, 72, 133, 132, 1352, 1353, 1414, 1413
71, 72, 73, 134, 133, 1353, 1354, 1415, 1414
72, 73, 74, 135, 134, 1354, 1355, 1416, 1415
73, 74, 75, 136, 135, 1355, 1356, 1417, 1416
74, 75, 76, 137, 136, 1356, 1357, 1418, 1417
75, 76, 77, 138, 137, 1357, 1358, 1419, 1418
76, 77, 78, 139, 138, 1358, 1359, 1420, 1419
77, 78, 79, 140, 139, 1359, 1360, 1421, 1420
78, 79, 80, 141, 140, 1360, 1361, 1422, 1421
79, 80, 81, 142, 141, 1361, 1362, 1423, 1422
80, 81, 82, 143, 142, 1362, 1363, 1424, 1423
81, 82, 83, 144, 143, 1363, 1364, 1425, 1424
82, 83, 84, 145, 144, 1364, 1365, 1426, 1425
83, 84, 85, 146, 145, 1365, 1366, 1427, 1426
84, 85, 86, 147, 146, 1366, 1367, 1428, 1427
85, 86, 87, 148, 147, 1367, 1368, 1429, 1428
86, 87, 88, 149, 148, 1368, 1369, 1430, 1429
87, 88, 89, 150, 149, 1369, 1370, 1431, 1430
88, 89, 90, 151, 150, 1370, 1371, 1432, 1431
89, 90, 91, 152, 151, 1371, 1372, 1433, 1432
90, 91, 92, 153, 152, 1372, 1373, 1434, 1433
91, 92, 93, 154, 153, 1373, 1374, 1435, 1434
92, 93, 94, 155, 154, 1374, 1375, 1436, 1435
93, 94, 95, 156, 155, 1375, 1376, 1437, 1436
94, 95, 96, 157, 156, 1376, 1377, 1438, 1437
95, 96, 97, 158, 157, 1377, 1378, 1439, 1438
96, 97, 98, 159, 158, 1378, 1379, 1440, 1439
97, 98, 99, 160, 159, 1379, 1380, 1441, 1440
98, 99, 100, 161, 160, 1380, 1381, 1442, 1441
99, 100, 101, 162, 161, 1381, 1382, 1443, 1442
100, 101, 102, 163, 162, 1382, 1383, 1444, 1443
101, 102, 103, 164, 163, 1383, 1384, 1445, 1444
102, 103, 104, 165, 164, 1384, 1385, 1446, 1445
103, 104, 105, 166, 165, 1385, 1386, 1447, 1446
104, 105, 106, 167, 166, 1386, 1387, 1448, 1447
105, 106, 107, 168, 167, 1387, 1388, 1449, 1448
106, 107, 108, 169, 168, 1388, 1389, 1450, 1449
107, 108, 109, 170, 169, 1389, 1390, 1451, 1450
108, 109, 110, 171, 170, 1390, 1391, 1452, 1451
109, 110, 111, 172, 171, 1391, 1392, 1453, 1452
110, 111, 112, 173, 172, 1392, 1393, 1454, 1453
111, 112, 113, 174, 173, 1393, 1394, 1455, 1454
112, 113, 114, 175, 174, 1394, 1395, 1456, 1455
113, 114, 115, 176, 175, 1395, 1396, 1457, 1456
114, 115, 116, 177, 176, 1396, 1397, 1458, 1457
115, 116, 117, 178, 177, 1397, 1398, 1459, 1458
116, 117, 118, 179, 178, 1398, 1399, 1460, 1459
117, 118, 119, 180, 179, 1399, 1400, 1461, 1460
118, 119, 120, 181, 180, 1400, 1401, 1462, 1461
119, 120, 121, 182, 181, 1401, 1402, 1463, 1462
120, 121, 122, 183, 182, 1402, 1403, 1464, 1463
121, 123, 124, 185, 184, 1404, 1405, 1466, 1465
122, 124, 125, 186, 185, 1405, 1406, 1467, 1466
123, 125, 126, 187, 186, 1406, 1407, 1468, 1467
124, 126, 127, 188, 187, 1407, 1408, 1469, 1468
125, 127, 128, 189, 188, 1408, 1409, 1470, 1469
126, 128, 129, 190, 189, 1409, 1410, 1471, 1470
127, 129, 130, 191, 190, 1410, 1411, 1472, 1471
128, 130, 131, 192, 191, 1411, 1412, 1473, 1472
129, 131, 132, 193, 192, 1412, 1413, 1474, 1473
130, 132, 133, 194, 193, 1413, 1414, 1475, 1474
131, 133, 134, 195, 194, 1414, 1415, 1476, 1475
132, 134, 135, 196, 195, 1415, 1416, 1477, 1476
133, 135, 136, 197, 196, 1416, 1417, 1478, 1477
134, 136, 137, 198, 197, 1417, 1418, 1479, 1478
135, 137, 138, 199, 198, 1418, 1419, 1480, 1479
136, 138, 139, 200, 199, 1419, 1420, 1481, 1480
137, 139, 140, 201, 200, 1420, 1421, 1482, 1481
138, 140, 141, 202, 201, 1421, 1422, 1483, 1482
139, 141, 142, 203, 202, 1422, 1423, 1484, 1483
140, 142, 143, 204, 203, 1423, 1424, 1485, 1484
141, 143, 144, 205, 204, 1424, 1425, 1486, 1485
142, 144, 145, 206, 205, 1425, 1426, 1487, 1486
143, 145, 146, 207, 206, 1426, 1427, 1488, 1487
144, 146, 147, 208, 207, 1427, 1428, 1489, 1488
145, 147, 148, 209, 208, 1428, 1429, 1490, 1489
146, 148, 149, 210, 209, 1429, 1430, 1491, 1490
147, 149, 150, 211, 210, 1430, 1431, 1492, 1491
148, 150, 151, 212, 211, 1431, 1432, 1493, 1492
149, 151, 152, 213, 212, 1432, 1433, 1494, 1493
150, 152, 153, 214, 213, 1433, 1434, 1495, 1494
151, 153, 154, 215, 214, 1434, 1435, 1496, 1495
152, 154, 155, 216, 215, 1435, 1436, 1497, 1496
153, 155, 156, 217, 216, 1436, 1437, 1498, 1497
154, 156, 157, 218, 217, 1437, 1438, 1499, 1498
155, 157, 158, 219, 218, 1438, 1439, 1500, 1499
156, 158, 159, 220, 219, 1439, 1440, 1501, 1500
157, 159, 160, 221, 220, 1440, 1441, 1502, 1501
158, 160, 161, 222, 221, 1441, 1442, 1503, 1502
159, 161, 162, 223, 222, 1442, 1443, 1504, 1503
160, 162, 163, 224, 223, 1443, 1444, 1505, 1504
161, 163, 164, 225, 224, 1444, 1445, 1506, 1505
162, 164, 165, 226, 225, 1445, 1446, 1507, 1506
163, 165, 166, 227, 226, 1446, 1447, 1508, 1507
164, 166, 167, 228, 227, 1447, 1448, 1509, 1508
165, 167, 168, 229, 228, 1448, 1449, 1510, 1509
166, 168, 169, 230, 229, 1449, 1450, 1511, 1510
167, 169, 170, 231, 230, 1450, 1451, 1512, 1511
168, 170, 171, 232, 231, 1451, 1452, 1513, 1512
169, 171, 172, 233, 232, 1452, 1453, 1514, 1513
170, 172, 173, 234, 233, 1453, 1454, 1515, 1514
171, 173, 174, 235, 234, 1454, 1455, 1516, 1515
172, 174, 175, 236, 235, 1455, 1456, 1517, 1516
173, 175, 176, 237, 236, 1456, 1457, 1518, 1517
174, 176, 177, 238, 237, 1457, 1458, 1519, 1518
175, 177, 178, 239, 238, 1458, 1459, 1520, 1519
176, 178, 179, 240, 239, 1459, 1460, 1521, 1520
177, 179, 180, 241, 240, 1460, 1461, 1522, 1521
178, 180, 181, 242, 241, 1461, 1462, 1523, 1522
179, 181, 182, 243, 242, 1462, 1463, 1524, 1523
180, 182, 183, 244, 243, 1463, 1464, 1525, 1524
181, 184, 185, 246, 245, 1465, 1466, 1527, 1526
182, 185, 186, 247, 246, 1466, 1467, 1528, 1527
183, 186, 187, 248, 247, 1467, 1468, 1529, 1528
184, 187, 188, 249, 248, 1468, 1469, 1530, 1529
185, 188, 189, 250, 249, 1469, 1470, 1531, 1530
186, 189, 190, 251, 250, 1470, 1471, 1532, 1531
187, 190, 191, 252, 251, 1471, 1472, 1533, 1532
188, 191, 192, 253, 252, 1472, 1473, 1534, 1533
189, 192, 193, 254, 253, 1473, 1474, 1535, 1534
190, 193, 194, 255, 254, 1474, 1475, 1536, 1535
191, 194, 195, 256, 255, 1475, 1476, 1537, 1536
192, 195, 196, 257, 256, 1476, 1477, 1538, 1537
193, 196, 197, 258, 257, 1477, 1478, 1539, 1538
194, 197, 198, 259, 258, 1478, 1479, 1540, 1539
195, 198, 199, 260, 259, 1479, 1480, 1541, 1540
196, 199, 200, 261, 260, 1480, 1481, 1542, 1541
197, 200, 201, 262, 261, 1481, 1482, 1543, 1542
198, 201, 202, 263, 262, 1482, 1483, 1544, 1543
199, 202, 203, 264, 263, 1483, 1484, 1545, 1544
200, 203, 204, 265, 264, 1484, 1485, 1546, 1545
201, 204, 205, 266, 265, 1485, 1486, 1547, 1546
202, 205, 206, 267, 266, 1486, 1487, 1548, 1547
203, 206, 207, 268, 267, 1487, 1488, 1549, 1548
204, 207, 208, 269, 268, 1488, 1489, 1550, 1549
205, 208, 209, 270, 269, 1489, 1490, 1551, 1550
206, 209, 210, 271, 270, 1490, 1491, 1552, 1551
207, 210, 211, 272, 271, 1491, 1492, 1553, 1552
208, 211, 212, 273, 272, 1492, 1493, 1554, 1553
209, 212, 213, 274, 273, 1493, 1494, 1555, 1554
210, 213, 214, 275, 274, 1494, 1495, 1556, 1555
211, 214, 215, 276, 275, 1495, 1496, 1557, 1556
212, 215, 216, 277, 276, 1496, 1497, 1558, 1557
213, 216, 217, 278, 277, 1497, 1498, 1559, 1558
214, 217, 218, 279, 278, 1498, 1499, 1560, 1559
215, 218, 219, 280, 279, 1499, 1500, 1561, 1560
216, 219, 220, 281, 280, 1500, 1501, 1562, 1561
217, 220, 221, 282, 281, 1501, 1502, 1563, 1562
218, 221, 222, 283, 282, 1502, 1503, 1564, 1563
219, 222, 223, 284, 283, 1503, 1504, 1565, 1564
220, 223, 224, 285, 284, 1504, 1505, 1566, 1565
221, 224, 225, 286, 285, 1505, 1506, 1567, 1566
222, 225, 226, 287, 286, 1506, 1507, 1568, 1567
223, 226, 227, 288, 287, 1507, 1508, 1569, 1568
224, 227, 228, 289, 288, 1508, 1509, 1570, 1569
225, 228, 229, 290, 289, 1509, 1510, 1571, 1570
226, 229, 230, 291, 290, 1510, 1511, 1572, 1571
227, 230, 231, 292, 291, 1511, 1512, 1573, 1572
228, 231, 232, 293, 292, 1512, 1513, 1574, 1573
229, 232, 233, 294, 293, 1513, 1514, 1575, 1574
230, 233, 234, 295, 294, 1514, 1515, 1576, 1575
231, 234, 235, 296, 295, 1515, 1516, 1577, 1576
232, 235, 236, 297, 296, 1516, 1517, 1578, 1577
233, 236, 237, 298, 297, 1517, 1518, 1579, 1578
234, 237, 238, 299, 298, 1518, 1519, 1580, 1579
235, 238, 239, 300, 299, 1519, 1520, 1581, 1580
236, 239, 240, 301, 300, 1520, 1521, 1582, 1581
237, 240, 241, 302, 301, 1521, 1522, 1583, 1582
238, 241, 242, 303, 302, 1522, 1523, 1584, 1583
239, 242, 243, 304, 303, 1523, 1524, 1585, 1584
240, 243, 244, 305, 304, 1524, 1525, 1586, 1585
241, 245, 246, 307, 306, 1526, 1527, 1588, 1587
242, 246, 247, 308, 307, 1527, 1528, 1589, 1588
243, 247, 248, 309, 308, 1528, 1529, 1590, 1589
244, 248, 249, 310, 309, 1529, 1530, 1591, 1590
245, 249, 250, 311, 310, 1530, 1531, 1592, 1591
246, 250, 251, 312, 311, 1531, 1532, 1593, 1592
247, 251, 252, 313, 312, 1532, 1533, 1594, 1593
248, 252, 253, 314, 313, 1533, 1534, 1595, 1594
249, 253, 254, 315, 314, 1534, 1535, 1596, 1595
250, 254, 255, 316, 315, 1535, 1536, 1597, 1596
251, 255, 256, 317, 316, 1536, 1537, 1598, 1597
252, 256, 257, 318, 317, 1537, 1538, 1599, 1598
253, 257, 258, 319, 318, 1538, 1539, 1600, 1599
254, 258, 259, 320, 319, 1539, 1540, 1601, 1600
255, 259, 260, 321, 320, 1540, 1541, 1602, 1601
256, 260, 261, 322, 321, 1541, 1542, 1603, 1602
257, 261, 262, 323, 322, 1542, 1543, 1604, 1603
258, 262, 263, 324, 323, 1543, 1544, 1605, 1604
259, 263, 264, 325, 324, 1544, 1545, 1606, 1605
260, 264, 265, 326, 325, 1545, 1546, 1607, 1606
261, 265, 266, 327, 326, 1546, 1547, 1608, 1607
262, 266, 267, 328, 327, 1547, 1548, 1609, 1608
263, 267, 268, 329, 328, 1548, 1549, 1610, 1609
264, 268, 269, 330, 329, 1549, 1550, 1611, 1610
265, 269, 270, 331, 330, 1550, 1551, 1612, 1611
266, 270, 271, 332, 331, 1551, 1552, 1613, 1612
267, 271, 272, 333, 332, 1552, 1553, 1614, 1613
268, 272, 273, 334, 333, 1553, 1554, 1615, 1614
269, 273, 274, 335, 334, 1554, 1555, 1616, 1615
270, 274, 275, 336, 335, 1555, 1556, 1617, 1616
271, 275, 276, 337, 336, 1556, 1557, 1618, 1617
272, 276, 277, 338, 337, 1557, 1558, 1619, 1618
273, 277, 278, 339, 338, 1558, 1559, 1620, 1619
274, 278, 279, 340, 339, 1559, 1560, 1621, 1620
275, 279, 280, 341, 340, 1560, 1561, 1622, 1621
276, 280, 281, 342, 341, 1561, 1562, 1623, 1622
277, 281, 282, 343, 342, 1562, 1563, 1624, 1623
278, 282, 283, 344, 343, 1563, 1564, 1625, 1624
279, 283, 284, 345, 344, 1564, 1565, 1626, 1625
280, 284, 285, 346, 345, 1565, 1566, 1627, 1626
281, 285, 286, 347, 346, 1566, 1567, 1628, 1627
282, 286, 287, 348, 347, 1567, 1568, 1629, 1628
283, 287, 288, 349, 348, 1568, 1569, 1630, 1629
284, 288, 289, 350, 349, 1569, 1570, 1631, 1630
285, 289, 290, 351, 350, 1570, 1571, 1632, 1631
286, 290, 291, 352, 351, 1571, 1572, 1633, 1632
287, 291, 292, 353, 352, 1572, 1573, 1634, 1633
288, 292, 293, 354, 353, 1573, 1574, 1635, 1634
289, 293, 294, 355, 354, 1574, 1575, 1636, 1635
290, 294, 295, 356, 355, 1575, 1576, 1637, 1636
291, 295, 296, 357, 356, 1576, 1577, 1638, 1637
292, 296, 297, 358, 357, 1577, 1578, 1639, 1638
293, 297, 298, 359, 358, 1578, 1579, 1640, 1639
294, 298, 299, 360, 359, 1579, 1580, 1641, 1640
295, 299, 300, 361, 360, 1580, 1581, 1642, 1641
296, 300, 301, 362, 361, 1581, 1582, 1643, 1642
297, 301, 302, 363, 362, 1582, 1583, 1644, 1643
298, 302, 303, 364, 363, 1583, 1584, 1645, 1644
299, 303, 304, 365, 364, 1584, 1585, 1646, 1645
300, 304, 305, 366, 365, 1585, 1586, 1647, 1646
301, 306, 307, 368, 367, 1587, 1588, 1649, 1648
302, 307, 308, 369, 368, 1588, 1589, 1650, 1649
303, 308, 309, 370, 369, 1589, 1590, 1651, 1650
304, 309, 310, 371, 370, 1590, 1591, 1652, 1651
305, 310, 311, 372, 371, 1591, 1592, 1653, 1652
306, 311, 312, 373, 372, 1592, 1593, 1654, 1653
307, 312, 313, 374, 373, 1593, 1594, 1655, 1654
308, 313, 314, 375, 374, 1594, 1595, 1656, 1655
309, 314, 315, 376, 375, 1595, 1596, 1657, 1656
310, 315, 316, 377, 376, 1596, 1597, 1658, 1657
311, 316, 317, 378, 377, 1597, 1598, 1659, 1658
312, 317, 318, 379, 378, 1598, 1599, 1660, 1659
313, 318, 319, 380, 379, 1599, 1600, 1661, 1660
314, 319, 320, 381, 380, 1600, 1601, 1662, 1661
315, 320, 321, 382, 381, 1601, 1602, 1663, 1662
316, 321, 322, 383, 382, 1602, 1603, 1664, 1663
317, 322, 323, 384, 383, 1603, 1604, 1665, 1664
318, 323, 324, 385, 384, 1604, 1605, 1666, 1665
319, 324, 325, 386, 385, 1605, 1606, 1667, 1666
320, 325, 326, 387, 386, 1606, 1607, 1668, 1667
321, 326, 327, 388, 387, 1607, 1608, 1669, 1668
322, 327, 328, 389, 388, 1608, 1609, 1670, 1669
323, 328, 329, 390, 389, 1609, 1610, 1671, 1670
324, 329, 330, 391, 390, 1610, 1611, 1672, 1671
325, 330, 331, 392, 391, 1611, 1612, 1673, 1672
326, 331, 332, 393, 392, 1612, 1613, 1674, 1673
327, 332, 333, 394, 393, 1613, 1614, 1675, 1674
328, 333, 334, 395, 394, 1614, 1615, 1676, 1675
329, 334, 335, 396, 395, 1615, 1616, 1677, 1676
330, 335, 336, 397, 396, 1616, 1617, 1678, 1677
331, 336, 337, 398, 397, 1617, 1618, 1679, 1678
332, 337, 338, 399, 398, 1618, 1619, 1680, 1679
333, 338, 339, 400, 399, 1619, 1620, 1681, 1680
334, 339, 340, 401, 400, 1620, 1621, 1682, 1681
335, 340, 341, 402, 401, 1621, 1622, 1683, 1682
336, 341, 342, 403, 402, 1622, 1623, 1684, 1683
337, 342, 343, 404, 403, 1623, 1624, 1685, 1684
338, 343, 344, 405, 404, 1624, 1625, 1686, 1685
339, 344, 345, 406, 405, 1625, 1626, 1687, 1686
340, 345, 346, 407, 406, 1626, 1627, 1688, 1687
341, 346, 347, 408, 407, 1627, 1628, 1689, 1688
342, 347, 348, 409, 408, 1628, 1629, 1690, 1689
343, 348, 349, 410, 409, 1629, 1630, 1691, 1690
344, 349, 350, 411, 410, 1630, 1631, 1692, 1691
345, 350, 351, 412, 411, 1631, 1632, 1693, 1692
346, 351, 352, 413, 412, 1632, 1633, 1694, 1693
347, 352, 353, 414, 413, 1633, 1634, 1695, 1694
348, 353, 354, 415, 414, 1634, 1635, 1696, 1695
349, 354, 355, 416, 415, 1635, 1636, 1697, 1696
350, 355, 356, 417, 416, 1636, 1637, 1698, 1697
351, 356, 357, 418, 417, 1637, 1638, 1699, 1698
352, 357, 358, 419, 418, 1638, 1639, 1700, 1699
353, 358, 359, 420, 419, 1639, 1640, 1701, 1700
354, 359, 360, 421, 420, 1640, 1641, 1702, 1701
355, 360, 361, 422, 421, 1641, 1642, 1703, 1702
356, 361, 362, 423, 422, 1642, 1643, 1704, 1703
357, 362, 363, 424, 423, 1643, 1644, 1705, 1704
358, 363, 364, 425, 424, 1644, 1645, 1706, 1705
359, 364, 365, 426, 425, 1645, 1646, 1707, 1706
360, 365, 366, 427, 426, 1646, 1647, 1708, 1707
361, 367, 368, 429, 428, 1648, 1649, 1710, 1709
362, 368, 369, 430, 429, 1649, 1650, 1711, 1710
363, 369, 370, 431, 430, 1650, 1651, 1712, 1711
364, 370, 371, 432, 431, 1651, 1652, 1713, 1712
365, 371, 372, 433, 432, 1652, 1653, 1714, 1713
366, 372, 373, 434, 433, 1653, 1654, 1715, 1714
367, 373, 374, 435, 434, 1654, 1655, 1716, 1715
368, 374, 375, 436, 435, 1655, 1656, 1717, 1716
369, 375, 376, 437, 436, 1656, 1657, 1718, 1717
370, 376, 377, 438, 437, 1657, 1658, 1719, 1718
371, 377, 378, 439, 438, 1658, 1659, 1720, 1719
372, 378, 379, 440, 439, 1659, 1660, 1721, 1720
373, 379, 380, 441, 440, 1660, 1661, 1722, 1721
374, 380, 381, 442, 441, 1661, 1662, 1723, 1722
375, 381, 382, 443, 442, 1662, 1663, 1724, 1723
376, 382, 383, 444, 443, 1663, 1664, 1725, 1724
377, 383, 384, 445, 444, 1664, 1665, 1726, 1725
378, 384, 385, 446, 445, 1665, 1666, 1727, 1726
379, 385, 386, 447, 446, 1666, 1667, 1728, 1727
380, 386, 387, 448, 447, 1667, 1668, 1729, 1728
381, 387, 388, 449, 448, 1668, 1669, 1730, 1729
382, 388, 389, 450, 449, 1669, 1670, 1731, 1730
383, 389, 390, 451, 450, 1670, 1671, 1732, 1731
384, 390, 391, 452, 451, 1671, 1672, 1733, 1732
385, 391, 392, 453, 452, 1672, 1673, 1734, 1733
386, 392, 393, 454, 453, 1673, 1674, 1735, 1734
387, 393, 394, 455, 454, 1674, 1675, 1736, 1735
388, 394, 395, 456, 455, 1675, 1676, 1737, 1736
389, 395, 396, 457, 456, 1676, 1677, 1738, 1737
390, 396, 397, 458, 457, 1677, 1678, 1739, 1738
391, 397, 398, 459, 458, 1678, 1679, 1740, 1739
392, 398, 399, 460, 459, 1679, 1680, 1741, 1740
393, 399, 400, 461, 460, 1680, 1681, 1742, 1741
394, 400, 401, 462, 461, 1681, 1682, 1743, 1742
395, 401, 402, 463, 462, 1682, 1683, 1744, 1743
396, 402, 403, 464, 463, 1683, 1684, 1745, 1744
397, 403, 404, 465, 464, 1684, 1685, 1746, 1745
398, 404, 405, 466, 465, 1685, 1686, 1747, 1746
399, 405, 406, 467, 466, 1686, 1687, 1748, 1747
400, 406, 407, 468, 467, 1687, 1688, 1749, 1748
401, 407, 408, 469, 468, 1688, 1689, 1750, 1749
402, 408, 409, 470, 469, 1689, 1690, 1751, 1750
403, 409, 410, 471, 470, 1690, 1691, 1752, 1751
404, 410, 411, 472, 471, 1691, 1692, 1753, 1752
405, 411, 412, 473, 472, 1692, 1693, 1754, 1753
406, 412, 413, 474, 473, 1693, 1694, 1755, 1754
407, 413, 414, 475, 474, 1694, 1695, 1756, 1755
408, 414, 415, 476, 475, 1695, 1696, 1757, 1756
409, 415, 416, 477, 476, 1696, 1697, 1758, 1757
410, 416, 417, 478, 477, 1697, 1698, 1759, 1758
411, 417, 418, 479, 478, 1698, 1699, 1760, 1759
412, 418, 419, 480, 479, 1699, 1700, 1761, 1760
413, 419, 420, 481, 480, 1700, 1701, 1762, 1761
414, 420, 421, 482, 481, 1701, 1702, 1763, 1762
415, 421, 422, 483, 482, 1702, 1703, 1764, 1763
416, 422, 423, 484, 483, 1703, 1704, 1765, 1764
417, 423, 424, 485, 484, 1704, 1705, 1766, 1765
418, 424, 425, 486, 485, 1705, 1706, 1767, 1766
419, 425, 426, 487, 486, 1706, 1707, 1768, 1767
420, 426, 427, 488, 487, 1707, 1708, 1769, 1768
421, 428, 429, 490, 489, 1709, 1710, 1771, 1770
422, 429, 430, 491, 490, 1710, 1711, 1772, 1771
423, 430, 431, 492, 491, 1711, 1712, 1773, 1772
424, 431, 432, 493, 492, 1712, 1713, 1774, 1773
425, 432, 433, 494, 493, 1713, 1714, 1775, 1774
426, 433, 434, 495, 494, 1714, 1715, 1776, 1775
427, 434, 435, 496, 495, 1715, 1716, 1777, 1776
428, 435, 436, 497, 496, 1716, 1717, 1778, 1777
429, 436, 437, 498, 497, 1717, 1718, 1779, 1778
430, 437, 438, 499, 498, 1718, 1719, 1780, 1779
431, 438, 439, 500, 499, 1719, 1720, 1781, 1780
432, 439, 440, 501, 500, 1720, 1721, 1782, 1781
433, 440, 441, 502, 501, 1721, 1722, 1783, 1782
434, 441, 442, 503, 502, 1722, 1723, 1784, 1783
435, 442, 443, 504, 503, 1723, 1724, 1785, 1784
436, 443, 444, 505, 504, 1724, 1725, 1786, 1785
437, 444, 445, 506, 505, 1725, 1726, 1787, 1786
438, 445, 446, 507, 506, 1726, 1727, 1788, 1787
439, 446, 447, 508, 507, 1727, 1728, 1789, 1788
440, 447, 448, 509, 508, 1728, 1729, 1790, 1789
441, 448, 449, 510, 509, 1729, 1730, 1791, 1790
442, 449, 450, 511, 510, 1730, 1731, 1792, 1791
443, 450, 451, 512, 511, 1731, 1732, 1793, 1792
444, 451, 452, 513, 512, 1732, 1733, 1794, 1793
445, 452, 453, 514, 513, 1733, 1734, 1795, 1794
446, 453, 454, 515, 514, 1734, 1735, 1796, 1795
447, 454, 455, 516, 515, 1735, 1736, 1797, 1796
448, 455, 456, 517, 516, 1736, 1737, 1798, 1797
449, 456, 457, 518, 517, 1737, 1738, 1799, 1798
450, 457, 458, 519, 518, 1738, 1739, 1800, 1799
451, 458, 459, 520, 519, 1739, 1740, 1801, 1800
452, 459, 460, 521, 520, 1740, 1741, 1802, 1801
453, 460, 461, 522, 521, 1741, 1742, 1803, 1802
454, 461, 462, 523, 522, 1742, 1743, 1804, 1803
455, 462, 463, 524, 523, 1743, 1744, 1805, 1804
456, 463, 464, 525, 524, 1744, 1745, 1806, 1805
457, 464, 465, 526, 525, 1745, 1746, 1807, 1806
458, 465, 466, 527, 526, 1746, 1747, 1808, 1807
459, 466, 467, 528, 527, 1747, 1748, 1809, 1808
460, 467, 468, 529, 528, 1748, 1749, 1810, 1809
461, 468, 469, 530, 529, 1749, 1750, 1811, 1810
462, 469, 470, 531, 530, 1750, 1751, 1812, 1811
463, 470, 471, 532, 531, 1751, 1752, 1813, 1812
464, 471, 472, 533, 532, 1752, 1753, 1814, 1813
465, 472, 473, 534, 533, 1753, 1754, 1815, 1814
466, 473, 474, 535, 534, 1754, 1755, 1816, 1815
467, 474, 475, 536, 535, 1755, 1756, 1817, 1816
468, 475, 476, 537, 536, 1756, 1757, 1818, 1817
469, 476, 477, 538, 537, 1757, 1758, 1819, 1818
470, 477, 478, 539, 538, 1758, 1759, 1820, 1819
471, 478, 479, 540, 539, 1759, 1760, 1821, 1820
472, 479, 480, 541, 540, 1760, 1761, 1822, 1821
473, 480, 481, 542, 541, 1761, 1762, 1823, 1822
474, 481, 482, 543, 542, 1762, 1763, 1824, 1823
475, 482, 483, 544, 543, 1763, 1764, 1825, 1824
476, 483, 484, 545, 544, 1764, 1765, 1826, 1825
477, 484, 485, 546, 545, 1765, 1766, 1827, 1826
478, 485, 486, 547, 546, 1766, 1767, 1828, 1827
479, 486, 487, 548, 547, 1767, 1768, 1829, 1828
480, 487, 488, 549, 548, 1768, 1769, 1830, 1829
481, 489, 490, 551, 550, 1770, 1771, 1832, 1831
482, 490, 491, 552, 551, 1771, 1772, 1833, 1832
483, 491, 492, 553, 552, 1772, 1773, 1834, 1833
484, 492, 493, 554, 553, 1773, 1774, 1835, 1834
485, 493, 494, 555, 554, 1774, 1775, 1836, 1835
486, 494, 495, 556, 555, 1775, 1776, 1837, 1836
487, 495, 496, 557, 556, 1776, 1777, 1838, 1837
488, 496, 497, 558, 557, 1777, 1778, 1839, 1838
489, 497, 498, 559, 558, 1778, 1779, 1840, 1839
490, 498, 499, 560, 559, 1779, 1780, 1841, 1840
491, 499, 500, 561, 560, 1780, 1781, 1842, 1841
492, 500, 501, 562, 561, 1781, 1782, 1843, 1842
493, 501, 502, 563, 562, 1782, 1783, 1844, 1843
494, 502, 503, 564, 563, 1783, 1784, 1845, 1844
495, 503, 504, 565, 564, 1784, 1785, 1846, 1845
496, 504, 505, 566, 565, 1785, 1786, 1847, 1846
497, 505, 506, 567, 566, 1786, 1787, 1848, 1847
498, 506, 507, 568, 567, 1787, 1788, 1849, 1848
499, 507, 508, 569, 568, 1788, 1789, 1850, 1849
500, 508, 509, 570, 569, 1789, 1790, 1851, 1850
501, 509, 510, 571, 570, 1790, 1791, 1852, 1851
502, 510, 511, 572, 571, 1791, 1792, 1853, 1852
503, 511, 512, 573, 572, 1792, 1793, 1854, 1853
504, 512, 513, 574, 573, 1793, 1794, 1855, 1854
505, 513, 514, 575, 574, 1794, 1795, 1856, 1855
506, 514, 515, 576, 575, 1795, 1796, 1857, 1856
507, 515, 516, 577, 576, 1796, 1797, 1858, 1857
508, 516, 517, 578, 577, 1797, 1798, 1859, 1858
509, 517, 518, 579, 578, 1798, 1799, 1860, 1859
510, 518, 519, 580, 579, 1799, 1800, 1861, 1860
511, 519, 520, 581, 580, 1800, 1801, 1862, 1861
512, 520, 521, 582, 581, 1801, 1802, 1863, 1862
513, 521, 522, 583, 582, 1802, 1803, 1864, 1863
514, 522, 523, 584, 583, 1803, 1804, 1865, 1864
515, 523, 524, 585, 584, 1804, 1805, 1866, 1865
516, 524, 525, 586, 585, 1805, 1806, 1867, 1866
517, 525, 526, 587, 586, 1806, 1807, 1868, 1867
518, 526, 527, 588, 587, 1807, 1808, 1869, 1868
519, 527, 528, 589, 588, 1808, 1809, 1870, 1869
520, 528, 529, 590, 589, 1809, 1810, 1871, 1870
521, 529, 530, 591, 590, 1810, 1811, 1872, 1871
522, 530, 531, 592, 591, 1811, 1812, 1873, 1872
523, 531, 532, 593, 592, 1812, 1813, 1874, 1873
524, 532, 533, 594, 593, 1813, 1814, 1875, 1874
525, 533, 534, 595, 594, 1814, 1815, 1876, 1875
526, 534, 535, 596, 595, 1815, 1816, 1877, 1876
527, 535, 536, 597, 596, 1816, 1817, 1878, 1877
528, 536, 537, 598, 597, 1817, 1818, 1879, 1878
529, 537, 538, 599, 598, 1818, 1819, 1880, 1879
530, 538, 539, 600, 599, 1819, 1820, 1881, 1880
531, 539, 540, 601, 600, 1820, 1821, 1882, 1881
532, 540, 541, 602, 601, 1821, 1822, 1883, 1882
533, 541, 542, 603, 602, 1822, 1823, 1884, 1883
534, 542, 543, 604, 603, 1823, 1824, 1885, 1884
535, 543, 544, 605, 604, 1824, 1825, 1886, 1885
536, 544, 545, 606, 605, 1825, 1826, 1887, 1886
537, 545, 546, 607, 606, 1826, 1827, 1888, 1887
538, 546, 547, 608, 607, 1827, 1828, 1889, 1888
539, 547, 548, 609, 608, 1828, 1829, 1890, 1889
540, 548, 549, 610, 609, 1829, 1830, 1891, 1890
541, 550, 551, 612, 611, 1831, 1832, 1893, 1892
542, 551, 552, 613, 612, 1832, 1833, 1894, 1893
543, 552, 553, 614, 613, 1833, 1834, 1895, 1894
544, 553, 554, 615, 614, 1834, 1835, 1896, 1895
545, 554, 555, 616, 615, 1835, 1836, 1897, 1896
546, 555, 556, 617, 616, 1836, 1837, 1898, 1897
547, 556, 557, 618, 617, 1837, 1838, 1899, 1898
548, 557, 558, 619, 618, 1838, 1839, 1900, 1899
549, 558, 559, 620, 619, 1839, 1840, 1901, 1900
550, 559, 560, 621, 620, 1840, 1841, 1902, 1901
551, 560, 561, 622, 621, 1841, 1842, 1903, 1902
552, 561, 562, 623, 622, 1842, 1843, 1904, 1903
553, 562, 563, 624, 623, 1843, 1844, 1905, 1904
554, 563, 564, 625, 624, 1844, 1845, 1906, 1905
555, 564, 565, 626, 625, 1845, 1846, 1907, 1906
556, 565, 566, 627, 626, 1846, 1847, 1908, 1907
557, 566, 567, 628, 627, 1847, 1848, 1909, 1908
558, 567, 568, 629, 628, 1848, 1849, 1910, 1909
559, 568, 569, 630, 629, 1849, 1850, 1911, 1910
560, 569, 570, 631, 630, 1850, 1851, 1912, 1911
561, 570, 571, 632, 631, 1851, 1852, 1913, 1912
562, 571, 572, 633, 632, 1852, 1853, 1914, 1913
563, 572, 573, 634, 633, 1853, 1854, 1915, 1914
564, 573, 574, 635, 634, 1854, 1855, 1916, 1915
565, 574, 575, 636, 635, 1855, 1856, 1917, 1916
566, 575, 576, 637, 636, 1856, 1857, 1918, 1917
567, 576, 577, 638, 637, 1857, 1858, 1919, 1918
568, 577, 578, 639, 638, 1858, 1859, 1920, 1919
569, 578, 579, 640, 639, 1859, 1860, 1921, 1920
570, 579, 580, 641, 640, 1860, 1861, 1922, 1921
571, 580, 581, 642, 641, 1861, 1862, 1923, 1922
572, 581, 582, 643, 642, 1862, 1863, 1924, 1923
573, 582, 583, 644, 643, 1863, 1864, 1925, 1924
574, 583, 584, 645, 644, 1864, 1865, 1926, 1925
575, 584, 585, 646, 645, 1865, 1866, 1927, 1926
576, 585, 586, 647, 646, 1866, 1867, 1928, 1927
577, 586, 587, 648, 647, 1867, 1868, 1929, 1928
578, 587, 588, 649, 648, 1868, 1869, 1930, 1929
579, 588, 589, 650, 649, 1869, 1870, 1931, 1930
580, 589, 590, 651, 650, 1870, 1871, 1932, 1931
581, 590, 591, 652, 651, 1871, 1872, 1933, 1932
582, 591, 592, 653, 652, 1872, 1873, 1934, 1933
583, 592, 593, 654, 653, 1873, 1874, 1935, 1934
584, 593, 594, 655, 654, 1874, 1875, 1936, 1935
585, 594, 595, 656, 655, 1875, 1876, 1937, 1936
586, 595, 596, 657, 656, 1876, 1877, 1938, 1937
587, 596, 597, 658, 657, 1877, 1878, 1939, 1938
588, 597, 598, 659, 658, 1878, 1879, 1940, 1939
589, 598, 599, 660, 659, 1879, 1880, 1941, 1940
590, 599, 600, 661, 660, 1880, 1881, 1942, 1941
591, 600, 601, 662, 661, 1881, 1882, 1943, 1942
592, 601, 602, 663, 662, 1882, 1883, 1944, 1943
593, 602, 603, 664, 663, 1883, 1884, 1945, 1944
594, 603, 604, 665, 664, 1884, 1885, 1946, 1945
595, 604, 605, 666, 665, 1885, 1886, 1947, 1946
596, 605, 606, 667, 666, 1886, 1887, 1948, 1947
597, 606, 607, 668, 667, 1887, 1888, 1949, 1948
598, 607, 608, 669, 668, 1888, 1889, 1950, 1949
599, 608, 609, 670, 669, 1889, 1890, 1951, 1950
600, 609, 610, 671, 670, 1890, 1891, 1952, 1951
601, 611, 612, 673, 672, 1892, 1893, 1954, 1953
602, 612, 613, 674, 673, 1893, 1894, 1955, 1954
603, 613, 614, 675, 674, 1894, 1895, 1956, 1955
604, 614, 615, 676, 675, 1895, 1896, 1957, 1956
605, 615, 616, 677, 676, 1896, 1897, 1958, 1957
606, 616, 617, 678, 677, 1897, 1898, 1959, 1958
607, 617, 618, 679, 678, 1898, 1899, 1960, 1959
608, 618, 619, 680, 679, 1899, 1900, 1961, 1960
609, 619, 620, 681, 680, 1900, 1901, 1962, 1961
610, 620, 621, 682, 681, 1901, 1902, 1963, 1962
611, 621, 622, 683, 682, 1902, 1903, 1964, 1963
612, 622, 623, 684, 683, 1903, 1904, 1965, 1964
613, 623, 624, 685, 684, 1904, 1905, 1966, 1965
614, 624, 625, 686, 685, 1905, 1906, 1967, 1966
615, 625, 626, 687, 686, 1906, 1907, 1968, 1967
616, 626, 627, 688, 687, 1907, 1908, 1969, 1968
617, 627, 628, 689, 688, 1908, 1909, 1970, 1969
618, 628, 629, 690, 689, 1909, 1910, 1971, 1970
619, 629, 630, 691, 690, 1910, 1911, 1972, 1971
620, 630, 631, 692, 691, 1911, 1912, 1973, 1972
621, 631, 632, 693, 692, 1912, 1913, 1974, 1973
622, 632, 633, 694, 693, 1913, 1914, 1975, 1974
623, 633, 634, 695, 694, 1914, 1915, 1976, 1975
624, 634, 635, 696, 695, 1915, 1916, 1977, 1976
625, 635, 636, 697, 696, 1916, 1917, 1978, 1977
626, 636, 637, 698, 697, 1917, 1918, 1979, 1978
627, 637, 638, 699, 698, 1918, 1919, 1980, 1979
628, 638, 639, 700, 699, 1919, 1920, 1981, 1980
629, 639, 640, 701, 700, 1920, 1921, 1982, 1981
630, 640, 641, 702, 701, 1921, 1922, 1983, 1982
631, 641, 642, 703, 702, 1922, 1923, 1984, 1983
632, 642, 643, 704, 703, 1923, 1924, 1985, 1984
633, 643, 644, 705, 704, 1924, 1925, 1986, 1985
634, 644, 645, 706, 705, 1925, 1926, 1987, 1986
635, 645, 646, 707, 706, 1926, 1927, 1988, 1987
636, 646, 647, 708, 707, 1927, 1928, 1989, 1988
637, 647, 648, 709, 708, 1928, 1929, 1990, 1989
638, 648, 649, 710, 709, 1929, 1930, 1991, 1990
639, 649, 650, 711, 710, 1930, 1931, 1992, 1991
640, 650, 651, 712, 711, 1931, 1932, 1993, 1992
641, 651, 652, 713, 712, 1932, 1933, 1994, 1993
642, 652, 653, 714, 713, 1933, 1934, 1995, 1994
643, 653, 654, 715, 714, 1934, 1935, 1996, 1995
644, 654, 655, 716, 715, 1935, 1936, 1997, 1996
645, 655, 656, 717, 716, 1936, 1937, 1998, 1997
646, 656, 657, 718, 717, 1937, 1938, 1999, 1998
647, 657, 658, 719, 718, 1938, 1939, 2000, 1999
648, 658, 659, 720, 719, 1939, 1940, 2001, 2000
649, 659, 660, 721, 720, 1940, 1941, 2002, 2001
650, 660, 661, 722, 721, 1941, 1942, 2003, 2002
651, 661, 662, 723, 722, 1942, 1943, 2004, 2003
652, 662, 663, 724, 723, 1943, 1944, 2005, 2004
653, 663, 664, 725, 724, 1944, 1945, 2006, 2005
654, 664, 665, 726, 725, 1945, 1946, 2007, 2006
655, 665, 666, 727, 726, 1946, 1947, 2008, 2007
656, 666, 667, 728, 727, 1947, 1948, 2009, 2008
657, 667, 668, 729, 728, 1948, 1949, 2010, 2009
658, 668, 669, 730, 729, 1949, 1950, 2011, 2010
659, 669, 670, 731, 730, 1950, 1951, 2012, 2011
660, 670, 671, 732, 731, 1951, 1952, 2013, 2012
661, 672, 673, 734, 733, 1953, 1954, 2015, 2014
662, 673, 674, 735, 734, 1954, 1955, 2016, 2015
663, 674, 675, 736, 735, 1955, 1956, 2017, 2016
664, 675, 676, 737, 736, 1956, 1957, 2018, 2017
665, 676, 677, 738, 737, 1957, 1958, 2019, 2018
666, 677, 678, 739, 738, 1958, 1959, 2020, 2019
667, 678, 679, 740, 739, 1959, 1960, 2021, 2020
668, 679, 680, 741, 740, 1960, 1961, 2022, 2021
669, 680, 681, 742, 741, 1961, 1962, 2023, 2022
670, 681, 682, 743, 742, 1962, 1963, 2024, 2023
671, 682, 683, 744, 743, 1963, 1964, 2025, 2024
672, 683, 684, 745, 744, 1964, 1965, 2026, 2025
673, 684, 685, 746, 745, 1965, 1966, 2027, 2026
674, 685, 686, 747, 746, 1966, 1967, 2028, 2027
675, 686, 687, 748, 747, 1967, 1968, 2029, 2028
676, 687, 688, 749, 748, 1968, 1969, 2030, 2029
677, 688, 689, 750, 749, 1969, 1970, 2031, 2030
678, 689, 690, 751, 750, 1970, 1971, 2032, 2031
679, 690, 691, 752, 751, 1971, 1972, 2033, 2032
680, 691, 692, 753, 752, 1972, 1973, 2034, 2033
681, 692, 693, 754, 753, 1973, 1974, 2035, 2034
682, 693, 694, 755, 754, 1974, 1975, 2036, 2035
683, 694, 695, 756, 755, 1975, 1976, 2037, 2036
684, 695, 696, 757, 756, 1976, 1977, 2038, 2037
685, 696, 697, 758, 757, 1977, 1978, 2039, 2038
686, 697, 698, 759, 758, 1978, 1979, 2040, 2039
687, 698, 699, 760, 759, 1979, 1980, 2041, 2040
688, 699, 700, 761, 760, 1980, 1981, 2042, 2041
689, 700, 701, 762, 761, 1981, 1982, 2043, 2042
690, 701, 702, 763, 762, 1982, 1983, 2044, 2043
691, 702, 703, 764, 763, 1983, 1984, 2045, 2044
692, 703, 704, 765, 764, 1984, 1985, 2046, 2045
693, 704, 705, 766, 765, 1985, 1986, 2047, 2046
694, 705, 706, 767, 766, 1986, 1987, 2048, 2047
695, 706, 707, 768, 767, 1987, 1988, 2049, 2048
696, 707, 708, 769, 768, 1988, 1989, 2050, 2049
697, 708, 709, 770, 769, 1989, 1990, 2051, 2050
698, 709, 710, 771, 770, 1990, 1991, 2052, 2051
699, 710, 711, 772, 771, 1991, 1992, 2053, 2052
700, 711, 712, 773, 772, 1992, 1993, 2054, 2053
701, 712, 713, 774, 773, 1993, 1994, 2055, 2054
702, 713, 714, 775, 774, 1994, 1995, 2056, 2055
703, 714, 715, 776, 775, 1995, 1996, 2057, 2056
704, 715, 716, 777, 776, 1996, 1997, 2058, 2057
705, 716, 717, 778, 777, 1997, 1998, 2059, 2058
706, 717, 718, 779, 778, 1998, 1999, 2060, 2059
707, 718, 719, 780, 779, 1999, 2000, 2061, 2060
708, 719, 720, 781, 780, 2000, 2001, 2062, 2061
709, 720, 721, 782, 781, 2001, 2002, 2063, 2062
710, 721, 722, 783, 782, 2002, 2003, 2064, 2063
711, 722, 723, 784, 783, 2003, 2004, 2065, 2064
712, 723, 724, 785, 784, 2004, 2005, 2066, 2065
713, 724, 725, 786, 785, 2005, 2006, 2067, 2066
714, 725, 726, 787, 786, 2006, 2007, 2068, 2067
715, 726, 727, 788, 787, 2007, 2008, 2069, 2068
716, 727, 728, 789, 788, 2008, 2009, 2070, 2069
717, 728, 729, 790, 789, 2009, 2010, 2071, 2070
718, 729, 730, 791, 790, 2010, 2011, 2072, 2071
719, 730, 731, 792, 791, 2011, 2012, 2073, 2072
720, 731, 732, 793, 792, 2012, 2013, 2074, 2073
721, 733, 734, 795, 794, 2014, 2015, 2076, 2075
722, 734, 735, 796, 795, 2015, 2016, 2077, 2076
723, 735, 736, 797, 796, 2016, 2017, 2078, 2077
724, 736, 737, 798, 797, 2017, 2018, 2079, 2078
725, 737, 738, 799, 798, 2018, 2019, 2080, 2079
726, 738, 739, 800, 799, 2019, 2020, 2081, 2080
727, 739, 740, 801, 800, 2020, 2021, 2082, 2081
728, 740, 741, 802, 801, 2021, 2022, 2083, 2082
729, 741, 742, 803, 802, 2022, 2023, 2084, 2083
730, 742, 743, 804, 803, 2023, 2024, 2085, 2084
731, 743, 744, 805, 804, 2024, 2025, 2086, 2085
732, 744, 745, 806, 805, 2025, 2026, 2087, 2086
733, 745, 746, 807, 806, 2026, 2027, 2088, 2087
734, 746, 747, 808, 807, 2027, 2028, 2089, 2088
735, 747, 748, 809, 808, 2028, 2029, 2090, 2089
736, 748, 749, 810, 809, 2029, 2030, 2091, 2090
737, 749, 750, 811, 810, 2030, 2031, 2092, 2091
738, 750, 751, 812, 811, 2031, 2032, 2093, 2092
739, 751, 752, 813, 812, 2032, 2033, 2094, 2093
740, 752, 753, 814, 813, 2033, 2034, 2095, 2094
741, 753, 754, 815, 814, 2034, 2035, 2096, 2095
742, 754, 755, 816, 815, 2035, 2036, 2097, 2096
743, 755, 756, 817, 816, 2036, 2037, 2098, 2097
744, 756, 757, 818, 817, 2037, 2038, 2099, 2098
745, 757, 758, 819, 818, 2038, 2039, 2100, 2099
746, 758, 759, 820, 819, 2039, 2040, 2101, 2100
747, 759, 760, 821, 820, 2040, 2041, 2102, 2101
748, 760, 761, 822, 821, 2041, 2042, 2103, 2102
749, 761, 762, 823, 822, 2042, 2043, 2104, 2103
750, 762, 763, 824, 823, 2043, 2044, 2105, 2104
751, 763, 764, 825, 824, 2044, 2045, 2106, 2105
752, 764, 765, 826, 825, 2045, 2046, 2107, 2106
753, 765, 766, 827, 826, 2046, 2047, 2108, 2107
754, 766, 767, 828, 827, 2047, 2048, 2109, 2108
755, 767, 768, 829, 828, 2048, 2049, 2110, 2109
756, 768, 769, 830, 829, 2049, 2050, 2111, 2110
757, 769, 770, 831, 830, 2050, 2051, 2112, 2111
758, 770, 771, 832, 831, 2051, 2052, 2113, 2112
759, 771, 772, 833, 832, 2052, 2053, 2114, 2113
760, 772, 773, 834, 833, 2053, 2054, 2115, 2114
761, 773, 774, 835, 834, 2054, 2055, 2116, 2115
762, 774, 775, 836, 835, 2055, 2056, 2117, 2116
763, 775, 776, 837, 836, 2056, 2057, 2118, 2117
764, 776, 777, 838, 837, 2057, 2058, 2119, 2118
765, 777, 778, 839, 838, 2058, 2059, 2120, 2119
766, 778, 779, 840, 839, 2059, 2060, 2121, 2120
767, 779, 780, 841, 840, 2060, 2061, 2122, 2121
768, 780, 781, 842, 841, 2061, 2062, 2123, 2122
769, 781, 782, 843, 842, 2062, 2063, 2124, 2123
770, 782, 783, 844, 843, 2063, 2064, 2125, 2124
771, 783, 784, 845, 844, 2064, 2065, 2126, 2125
772, 784, 785, 846, 845, 2065, 2066, 2127, 2126
773, 785, 786, 847, 846, 2066, 2067, 2128, 2127
774, 786, 787, 848, 847, 2067, 2068, 2129, 2128
775, 787, 788, 849, 848, 2068, 2069, 2130, 2129
776, 788, 789, 850, 849, 2069, 2070, 2131, 2130
777, 789, 790, 851, 850, 2070, 2071, 2132, 2131
778, 790, 791, 852, 851, 2071, 2072, 2133, 2132
779, 791, 792, 853, 852, 2072, 2073, 2134, 2133
780, 792, 793, 854, 853, 2073, 2074, 2135, 2134
781, 794, 795, 856, 855, 2075, 2076, 2137, 2136
782, 795, 796, 857, 856, 2076, 2077, 2138, 2137
783, 796, 797, 858, 857, 2077, 2078, 2139, 2138
784, 797, 798, 859, 858, 2078, 2079, 2140, 2139
785, 798, 799, 860, 859, 2079, 2080, 2141, 2140
786, 799, 800, 861, 860, 2080, 2081, 2142, 2141
787, 800, 801, 862, 861, 2081, 2082, 2143, 2142
788, 801, 802, 863, 862, 2082, 2083, 2144, 2143
789, 802, 803, 864, 863, 2083, 2084, 2145, 2144
790, 803, 804, 865, 864, 2084, 2085, 2146, 2145
791, 804, 805, 866, 865, 2085, 2086, 2147, 2146
792, 805, 806, 867, 866, 2086, 2087, 2148, 2147
793, 806, 807, 868, 867, 2087, 2088, 2149, 2148
794, 807, 808, 869, 868, 2088, 2089, 2150, 2149
795, 808, 809, 870, 869, 2089, 2090, 2151, 2150
796, 809, 810, 871, 870, 2090, 2091, 2152, 2151
797, 810, 811, 872, 871, 2091, 2092, 2153, 2152
798, 811, 812, 873, 872, 2092, 2093, 2154, 2153
799, 812, 813, 874, 873, 2093, 2094, 2155, 2154
800, 813, 814, 875, 874, 2094, 2095, 2156, 2155
801, 814, 815, 876, 875, 2095, 2096, 2157, 2156
802, 815, 816, 877, 876, 2096, 2097, 2158, 2157
803, 816, 817, 878, 877, 2097, 2098, 2159, 2158
804, 817, 818, 879, 878, 2098, 2099, 2160, 2159
805, 818, 819, 880, 879, 2099, 2100, 2161, 2160
806, 819, 820, 881, 880, 2100, 2101, 2162, 2161
807, 820, 821, 882, 881, 2101, 2102, 2163, 2162
808, 821, 822, 883, 882, 2102, 2103, 2164, 2163
809, 822, 823, 884, 883, 2103, 2104, 2165, 2164
810, 823, 824, 885, 884, 2104, 2105, 2166, 2165
811, 824, 825, 886, 885, 2105, 2106, 2167, 2166
812, 825, 826, 887, 886, 2106, 2107, 2168, 2167
813, 826, 827, 888, 887, 2107, 2108, 2169, 2168
814, 827, 828, 889, 888, 2108, 2109, 2170, 2169
815, 828, 829, 890, 889, 2109, 2110, 2171, 2170
816, 829, 830, 891, 890, 2110, 2111, 2172, 2171
817, 830, 831, 892, 891, 2111, 2112, 2173, 2172
818, 831, 832, 893, 892, 2112, 2113, 2174, 2173
819, 832, 833, 894, 893, 2113, 2114, 2175, 2174
820, 833, 834, 895, 894, 2114, 2115, 2176, 2175
821, 834, 835, 896, 895, 2115, 2116, 2177, 2176
822, 835, 836, 897, 896, 2116, 2117, 2178, 2177
823, 836, 837, 898, 897, 2117, 2118, 2179, 2178
824, 837, 838, 899, 898, 2118, 2119, 2180, 2179
825, 838, 839, 900, 899, 2119, 2120, 2181, 2180
826, 839, 840, 901, 900, 2120, 2121, 2182, 2181
827, 840, 841, 902, 901, 2121, 2122, 2183, 2182
828, 841, 842, 903, 902, 2122, 2123, 2184, 2183
829, 842, 843, 904, 903, 2123, 2124, 2185, 2184
830, 843, 844, 905, 904, 2124, 2125, 2186, 2185
831, 844, 845, 906, 905, 2125, 2126, 2187, 2186
832, 845, 846, 907, 906, 2126, 2127, 2188, 2187
833, 846, 847, 908, 907, 2127, 2128, 2189, 2188
834, 847, 848, 909, 908, 2128, 2129, 2190, 2189
835, 848, 849, 910, 909, 2129, 2130, 2191, 2190
836, 849, 850, 911, 910, 2130, 2131, 2192, 2191
837, 850, 851, 912, 911, 2131, 2132, 2193, 2192
838, 851, 852, 913, 912, 2132, 2133, 2194, 2193
839, 852, 853, 914, 913, 2133, 2134, 2195, 2194
840, 853, 854, 915, 914, 2134, 2135, 2196, 2195
841, 855, 856, 917, 916, 2136, 2137, 2198, 2197
842, 856, 857, 918, 917, 2137, 2138, 2199, 2198
843, 857, 858, 919, 918, 2138, 2139, 2200, 2199
844, 858, 859, 920, 919, 2139, 2140, 2201, 2200
845, 859, 860, 921, 920, 2140, 2141, 2202, 2201
846, 860, 861, 922, 921, 2141, 2142, 2203, 2202
847, 861, 862, 923, 922, 2142, 2143, 2204, 2203
848, 862, 863, 924, 923, 2143, 2144, 2205, 2204
849, 863, 864, 925, 924, 2144, 2145, 2206, 2205
850, 864, 865, 926, 925, 2145, 2146, 2207, 2206
851, 865, 866, 927, 926, 2146, 2147, 2208, 2207
852, 866, 867, 928, 927, 2147, 2148, 2209, 2208
853, 867, 868, 929, 928, 2148, 2149, 2210, 2209
854, 868, 869, 930, 929, 2149, 2150, 2211, 2210
855, 869, 870, 931, 930, 2150, 2151, 2212, 2211
856, 870, 871, 932, 931, 2151, 2152, 2213, 2212
857, 871, 872, 933, 932, 2152, 2153, 2214, 2213
858, 872, 873, 934, 933, 2153, 2154, 2215, 2214
859, 873, 874, 935, 934, 2154, 2155, 2216, 2215
860, 874, 875, 936, 935, 2155, 2156, 2217, 2216
861, 875, 876, 937, 936, 2156, 2157, 2218, 2217
862, 876, 877, 938, 937, 2157, 2158, 2219, 2218
863, 877, 878, 939, 938, 2158, 2159, 2220, 2219
864, 878, 879, 940, 939, 2159, 2160, 2221, 2220
865, 891, 892, 953, 952, 2172, 2173, 2234, 2233
866, 892, 893, 954, 953, 2173, 2174, 2235, 2234
867, 893, 894, 955, 954, 2174, 2175, 2236, 2235
868, 894, 895, 956, 955, 2175, 2176, 2237, 2236
869, 895, 896, 957, 956, 2176, 2177, 2238, 2237
870, 896, 897, 958, 957, 2177, 2178, 2239, 2238
871, 897, 898, 959, 958, 2178, 2179, 2240, 2239
872, 898, 899, 960, 959, 2179, 2180, 2241, 2240
873, 899, 900, 961, 960, 2180, 2181, 2242, 2241
874, 900, 901, 962, 961, 2181, 2182, 2243, 2242
875, 901, 902, 963, 962, 2182, 2183, 2244, 2243
876, 902, 903, 964, 963, 2183, 2184, 2245, 2244
877, 903, 904, 965, 964, 2184, 2185, 2246, 2245
878, 904, 905, 966, 965, 2185, 2186, 2247, 2246
879, 905, 906, 967, 966, 2186, 2187, 2248, 2247
880, 906, 907, 968, 967, 2187, 2188, 2249, 2248
881, 907, 908, 969, 968, 2188, 2189, 2250, 2249
882, 908, 909, 970, 969, 2189, 2190, 2251, 2250
883, 909, 910, 971, 970, 2190, 2191, 2252, 2251
884, 910, 911, 972, 971, 2191, 2192, 2253, 2252
885, 911, 912, 973, 972, 2192, 2193, 2254, 2253
886, 912, 913, 974, 973, 2193, 2194, 2255, 2254
887, 913, 914, 975, 974, 2194, 2195, 2256, 2255
888, 914, 915, 976, 975, 2195, 2196, 2257, 2256
889, 916, 917, 978, 977, 2197, 2198, 2259, 2258
890, 917, 918, 979, 978, 2198, 2199, 2260, 2259
891, 918, 919, 980, 979, 2199, 2200, 2261, 2260
892, 919, 920, 981, 980, 2200, 2201, 2262, 2261
893, 920, 921, 982, 981, 2201, 2202, 2263, 2262
894, 921, 922, 983, 982, 2202, 2203, 2264, 2263
895, 922, 923, 984, 983, 2203, 2204, 2265, 2264
896, 923, 924, 985, 984, 2204, 2205, 2266, 2265
897, 924, 925, 986, 985, 2205, 2206, 2267, 2266
898, 925, 926, 987, 986, 2206, 2207, 2268, 2267
899, 926, 927, 988, 987, 2207, 2208, 2269, 2268
900, 927, 928, 989, 988, 2208, 2209, 2270, 2269
901, 928, 929, 990, 989, 2209, 2210, 2271, 2270
902, 929, 930, 991, 990, 2210, 2211, 2272, 2271
903, 930, 931, 992, 991, 2211, 2212, 2273, 2272
904, 931, 932, 993, 992, 2212, 2213, 2274, 2273
905, 932, 933, 994, 993, 2213, 2214, 2275, 2274
906, 933, 934, 995, 994, 2214, 2215, 2276, 2275
907, 934, 935, 996, 995, 2215, 2216, 2277, 2276
908, 935, 936, 997, 996, 2216, 2217, 2278, 2277
909, 936, 937, 998, 997, 2217, 2218, 2279, 2278
910, 937, 938, 999, 998, 2218, 2219, 2280, 2279
911, 938, 939, 1000, 999, 2219, 2220, 2281, 2280
912, 939, 940, 1001, 1000, 2220, 2221, 2282, 2281
913, 952, 953, 1014, 1013, 2233, 2234, 2295, 2294
914, 953, 954, 1015, 1014, 2234, 2235, 2296, 2295
915, 954, 955, 1016, 1015, 2235, 2236, 2297, 2296
916, 955, 956, 1017, 1016, 2236, 2237, 2298, 2297
917, 956, 957, 1018, 1017, 2237, 2238, 2299, 2298
918, 957, 958, 1019, 1018, 2238, 2239, 2300, 2299
919, 958, 959, 1020, 1019, 2239, 2240, 2301, 2300
920, 959, 960, 1021, 1020, 2240, 2241, 2302, 2301
921, 960, 961, 1022, 1021, 2241, 2242, 2303, 2302
922, 961, 962, 1023, 1022, 2242, 2243, 2304, 2303
923, 962, 963, 1024, 1023, 2243, 2244, 2305, 2304
924, 963, 964, 1025, 1024, 2244, 2245, 2306, 2305
925, 964, 965, 1026, 1025, 2245, 2246, 2307, 2306
926, 965, 966, 1027, 1026, 2246, 2247, 2308, 2307
927, 966, 967, 1028, 1027, 2247, 2248, 2309, 2308
928, 967, 968, 1029, 1028, 2248, 2249, 2310, 2309
929, 968, 969, 1030, 1029, 2249, 2250, 2311, 2310
930, 969, 970, 1031, 1030, 2250, 2251, 2312, 2311
931, 970, 971, 1032, 1031, 2251, 2252, 2313, 2312
932, 971, 972, 1033, 1032, 2252, 2253, 2314, 2313
933, 972, 973, 1034, 1033, 2253, 2254, 2315, 2314
934, 973, 974, 1035, 1034, 2254, 2255, 2316, 2315
935, 974, 975, 1036, 1035, 2255, 2256, 2317, 2316
936, 975, 976, 1037, 1036, 2256, 2257, 2318, 2317
937, 977, 978, 1039, 1038, 2258, 2259, 2320, 2319
938, 978, 979, 1040, 1039, 2259, 2260, 2321, 2320
939, 979, 980, 1041, 1040, 2260, 2261, 2322, 2321
940, 980, 981, 1042, 1041, 2261, 2262, 2323, 2322
941, 981, 982, 1043, 1042, 2262, 2263, 2324, 2323
942, 982, 983, 1044, 1043, 2263, 2264, 2325, 2324
943, 983, 984, 1045, 1044, 2264, 2265, 2326, 2325
944, 984, 985, 1046, 1045, 2265, 2266, 2327, 2326
945, 985, 986, 1047, 1046, 2266, 2267, 2328, 2327
946, 986, 987, 1048, 1047, 2267, 2268, 2329, 2328
947, 987, 988, 1049, 1048, 2268, 2269, 2330, 2329
948, 988, 989, 1050, 1049, 2269, 2270, 2331, 2330
949, 989, 990, 1051, 1050, 2270, 2271, 2332, 2331
950, 990, 991, 1052, 1051, 2271, 2272, 2333, 2332
951, 991, 992, 1053, 1052, 2272, 2273, 2334, 2333
952, 992, 993, 1054, 1053, 2273, 2274, 2335, 2334
953, 993, 994, 1055, 1054, 2274, 2275, 2336, 2335
954, 994, 995, 1056, 1055, 2275, 2276, 2337, 2336
955, 995, 996, 1057, 1056, 2276, 2277, 2338, 2337
956, 996, 997, 1058, 1057, 2277, 2278, 2339, 2338
957, 997, 998, 1059, 1058, 2278, 2279, 2340, 2339
958, 998, 999, 1060, 1059, 2279, 2280, 2341, 2340
959, 999, 1000, 1061, 1060, 2280, 2281, 2342, 2341
960, 1000, 1001, 1062, 1061, 2281, 2282, 2343, 2342
961, 1013, 1014, 1075, 1074, 2294, 2295, 2356, 2355
962, 1014, 1015, 1076, 1075, 2295, 2296, 2357, 2356
963, 1015, 1016, 1077, 1076, 2296, 2297, 2358, 2357
964, 1016, 1017, 1078, 1077, 2297, 2298, 2359, 2358
965, 1017, 1018, 1079, 1078, 2298, 2299, 2360, 2359
966, 1018, 1019, 1080, 1079, 2299, 2300, 2361, 2360
967, 1019, 1020, 1081, 1080, 2300, 2301, 2362, 2361
968, 1020, 1021, 1082, 1081, 2301, 2302, 2363, 2362
969, 1021, 1022, 1083, 1082, 2302, 2303, 2364, 2363
970, 1022, 1023, 1084, 1083, 2303, 2304, 2365, 2364
971, 1023, 1024, 1085, 1084, 2304, 2305, 2366, 2365
972, 1024, 1025, 1086, 1085, 2305, 2306, 2367, 2366
973, 1025, 1026, 1087, 1086, 2306, 2307, 2368, 2367
974, 1026, 1027, 1088, 1087, 2307, 2308, 2369, 2368
975, 1027, 1028, 1089, 1088, 2308, 2309, 2370, 2369
976, 1028, 1029, 1090, 1089, 2309, 2310, 2371, 2370
977, 1029, 1030, 1091, 1090, 2310, 2311, 2372, 2371
978, 1030, 1031, 1092, 1091, 2311, 2312, 2373, 2372
979, 1031, 1032, 1093, 1092, 2312, 2313, 2374, 2373
980, 1032, 1033, 1094, 1093, 2313, 2314, 2375, 2374
981, 1033, 1034, 1095, 1094, 2314, 2315, 2376, 2375
982, 1034, 1035, 1096, 1095, 2315, 2316, 2377, 2376
983, 1035, 1036, 1097, 1096, 2316, 2317, 2378, 2377
984, 1036, 1037, 1098, 1097, 2317, 2318, 2379, 2378
985, 1038, 1039, 1100, 1099, 2319, 2320, 2381, 2380
986, 1039, 1040, 1101, 1100, 2320, 2321, 2382, 2381
987, 1040, 1041, 1102, 1101, 2321, 2322, 2383, 2382
988, 1041, 1042, 1103, 1102, 2322, 2323, 2384, 2383
989, 1042, 1043, 1104, 1103, 2323, 2324, 2385, 2384
990, 1043, 1044, 1105, 1104, 2324, 2325, 2386, 2385
991, 1044, 1045, 1106, 1105, 2325, 2326, 2387, 2386
992, 1045, 1046, 1107, 1106, 2326, 2327, 2388, 2387
993, 1046, 1047, 1108, 1107, 2327, 2328, 2389, 2388
994, 1047, 1048, 1109, 1108, 2328, 2329, 2390, 2389
995, 1048, 1049, 1110, 1109, 2329, 2330, 2391, 2390
996, 1049, 1050, 1111, 1110, 2330, 2331, 2392, 2391
997, 1050, 1051, 1112, 1111, 2331, 2332, 2393, 2392
998, 1051, 1052, 1113, 1112, 2332, 2333, 2394, 2393
999, 1052, 1053, 1114, 1113, 2333, 2334, 2395, 2394
1000, 1053, 1054, 1115, 1114, 2334, 2335, 2396, 2395
1001, 1054, 1055, 1116, 1115, 2335, 2336, 2397, 2396
1002, 1055, 1056, 1117, 1116, 2336, 2337, 2398, 2397
1003, 1056, 1057, 1118, 1117, 2337, 2338, 2399, 2398
1004, 1057, 1058, 1119, 1118, 2338, 2339, 2400, 2399
1005, 1058, 1059, 1120, 1119, 2339, 2340, 2401, 2400
1006, 1059, 1060, 1121, 1120, 2340, 2341, 2402, 2401
1007, 1060, 1061, 1122, 1121, 2341, 2342, 2403, 2402
1008, 1061, 1062, 1123, 1122, 2342, 2343, 2404, 2403
1009, 1074, 1075, 1136, 1135, 2355, 2356, 2417, 2416
1010, 1075, 1076, 1137, 1136, 2356, 2357, 2418, 2417
1011, 1076, 1077, 1138, 1137, 2357, 2358, 2419, 2418
1012, 1077, 1078, 1139, 1138, 2358, 2359, 2420, 2419
1013, 1078, 1079, 1140, 1139, 2359, 2360, 2421, 2420
1014, 1079, 1080, 1141, 1140, 2360, 2361, 2422, 2421
1015, 1080, 1081, 1142, 1141, 2361, 2362, 2423, 2422
1016, 1081, 1082, 1143, 1142, 2362, 2363, 2424, 2423
1017, 1082, 1083, 1144, 1143, 2363, 2364, 2425, 2424
1018, 1083, 1084, 1145, 1144, 2364, 2365, 2426, 2425
1019, 1084, 1085, 1146, 1145, 2365, 2366, 2427, 2426
1020, 1085, 1086, 1147, 1146, 2366, 2367, 2428, 2427
1021, 1086, 1087, 1148, 1147, 2367, 2368, 2429, 2428
1022, 1087, 1088, 1149, 1148, 2368, 2369, 2430, 2429
1023, 1088, 1089, 1150, 1149, 2369, 2370, 2431, 2430
1024, 1089, 1090, 1151, 1150, 2370, 2371, 2432, 2431
1025, 1090, 1091, 1152, 1151, 2371, 2372, 2433, 2432
1026, 1091, 1092, 1153, 1152, 2372, 2373, 2434, 2433
1027, 1092, 1093, 1154, 1153, 2373, 2374, 2435, 2434
1028, 1093, 1094, 1155, 1154, 2374, 2375, 2436, 2435
1029, 1094, 1095, 1156, 1155, 2375, 2376, 2437, 2436
1030, 1095, 1096, 1157, 1156, 2376, 2377, 2438, 2437
1031, 1096, 1097, 1158, 1157, 2377, 2378, 2439, 2438
1032, 1097, 1098, 1159, 1158, 2378, 2379, 2440, 2439
1033, 1099, 1100, 1161, 1160, 2380, 2381, 2442, 2441
1034, 1100, 1101, 1162, 1161, 2381, 2382, 2443, 2442
1035, 1101, 1102, 1163, 1162, 2382, 2383, 2444, 2443
1036, 1102, 1103, 1164, 1163, 2383, 2384, 2445, 2444
1037, 1103, 1104, 1165, 1164, 2384, 2385, 2446, 2445
1038, 1104, 1105, 1166, 1165, 2385, 2386, 2447, 2446
1039, 1105, 1106, 1167, 1166, 2386, 2387, 2448, 2447
1040, 1106, 1107, 1168, 1167, 2387, 2388, 2449, 2448
1041, 1107, 1108, 1169, 1168, 2388, 2389, 2450, 2449
1042, 1108, 1109, 1170, 1169, 2389, 2390, 2451, 2450
1043, 1109, 1110, 1171, 1170, 2390, 2391, 2452, 2451
1044, 1110, 1111, 1172, 1171, 2391, 2392, 2453, 2452
1045, 1111, 1112, 1173, 1172, 2392, 2393, 2454, 2453
1046, 1112, 1113, 1174, 1173, 2393, 2394, 2455, 2454
1047, 1113, 1114, 1175, 1174, 2394, 2395, 2456, 2455
1048, 1114, 1115, 1176, 1175, 2395, 2396, 2457, 2456
1049, 1115, 1116, 1177, 1176, 2396, 2397, 2458, 2457
1050, 1116, 1117, 1178, 1177, 2397, 2398, 2459, 2458
1051, 1117, 1118, 1179, 1178, 2398, 2399, 2460, 2459
1052, 1118, 1119, 1180, 1179, 2399, 2400, 2461, 2460
1053, 1119, 1120, 1181, 1180, 2400, 2401, 2462, 2461
1054, 1120, 1121, 1182, 1181, 2401, 2402, 2463, 2462
1055, 1121, 1122, 1183, 1182, 2402, 2403, 2464, 2463
1056, 1122, 1123, 1184, 1183, 2403, 2404, 2465, 2464
1057, 1135, 1136, 1197, 1196, 2416, 2417, 2478, 2477
1058, 1136, 1137, 1198, 1197, 2417, 2418, 2479, 2478
1059, 1137, 1138, 1199, 1198, 2418, 2419, 2480, 2479
1060, 1138, 1139, 1200, 1199, 2419, 2420, 2481, 2480
1061, 1139, 1140, 1201, 1200, 2420, 2421, 2482, 2481
1062, 1140, 1141, 1202, 1201, 2421, 2422, 2483, 2482
1063, 1141, 1142, 1203, 1202, 2422, 2423, 2484, 2483
1064, 1142, 1143, 1204, 1203, 2423, 2424, 2485, 2484
1065, 1143, 1144, 1205, 1204, 2424, 2425, 2486, 2485
1066, 1144, 1145, 1206, 1205, 2425, 2426, 2487, 2486
1067, 1145, 1146, 1207, 1206, 2426, 2427, 2488, 2487
1068, 1146, 1147, 1208, 1207, 2427, 2428, 2489, 2488
1069, 1147, 1148, 1209, 1208, 2428, 2429, 2490, 2489
1070, 1148, 1149, 1210, 1209, 2429, 2430, 2491, 2490
1071, 1149, 1150, 1211, 1210, 2430, 2431, 2492, 2491
1072, 1150, 1151, 1212, 1211, 2431, 2432, 2493, 2492
1073, 1151, 1152, 1213, 1212, 2432, 2433, 2494, 2493
1074, 1152, 1153, 1214, 1213, 2433, 2434, 2495, 2494
1075, 1153, 1154, 1215, 1214, 2434, 2435, 2496, 2495
1076, 1154, 1155, 1216, 1215, 2435, 2436, 2497, 2496
1077, 1155, 1156, 1217, 1216, 2436, 2437, 2498, 2497
1078, 1156, 1157, 1218, 1217, 2437, 2438, 2499, 2498
1079, 1157, 1158, 1219, 1218, 2438, 2439, 2500, 2499
1080, 1158, 1159, 1220, 1219, 2439, 2440, 2501, 2500
1081, 1160, 1161, 1222, 1221, 2441, 2442, 2503, 2502
1082, 1161, 1162, 1223, 1222, 2442, 2443, 2504, 2503
1083, 1162, 1163, 1224, 1223, 2443, 2444, 2505, 2504
1084, 1163, 1164, 1225, 1224, 2444, 2445, 2506, 2505
1085, 1164, 1165, 1226, 1225, 2445, 2446, 2507, 2506
1086, 1165, 1166, 1227, 1226, 2446, 2447, 2508, 2507
1087, 1166, 1167, 1228, 1227, 2447, 2448, 2509, 2508
1088, 1167, 1168, 1229, 1228, 2448, 2449, 2510, 2509
1089, 1168, 1169, 1230, 1229, 2449, 2450, 2511, 2510
1090, 1169, 1170, 1231, 1230, 2450, 2451, 2512, 2511
1091, 1170, 1171, 1232, 1231, 2451, 2452, 2513, 2512
1092, 1171, 1172, 1233, 1232, 2452, 2453, 2514, 2513
1093, 1172, 1173, 1234, 1233, 2453, 2454, 2515, 2514
1094, 1173, 1174, 1235, 1234, 2454, 2455, 2516, 2515
1095, 1174, 1175, 1236, 1235, 2455, 2456, 2517, 2516
1096, 1175, 1176, 1237, 1236, 2456, 2457, 2518, 2517
1097, 1176, 1177, 1238, 1237, 2457, 2458, 2519, 2518
1098, 1177, 1178, 1239, 1238, 2458, 2459, 2520, 2519
1099, 1178, 1179, 1240, 1239, 2459, 2460, 2521, 2520
1100, 1179, 1180, 1241, 1240, 2460, 2461, 2522, 2521
1101, 1180, 1181, 1242, 1241, 2461, 2462, 2523, 2522
1102, 1181, 1182, 1243, 1242, 2462, 2463, 2524, 2523
1103, 1182, 1183, 1244, 1243, 2463, 2464, 2525, 2524
1104, 1183, 1184, 1245, 1244, 2464, 2465, 2526, 2525
1105, 1196, 1197, 1258, 1257, 2477, 2478, 2539, 2538
1106, 1197, 1198, 1259, 1258, 2478, 2479, 2540, 2539
1107, 1198, 1199, 1260, 1259, 2479, 2480, 2541, 2540
1108, 1199, 1200, 1261, 1260, 2480, 2481, 2542, 2541
1109, 1200, 1201, 1262, 1261, 2481, 2482, 2543, 2542
1110, 1201, 1202, 1263, 1262, 2482, 2483, 2544, 2543
1111, 1202, 1203, 1264, 1263, 2483, 2484, 2545, 2544
1112, 1203, 1204, 1265, 1264, 2484, 2485, 2546, 2545
1113, 1204, 1205, 1266, 1265, 2485, 2486, 2547, 2546
1114, 1205, 1206, 1267, 1266, 2486, 2487, 2548, 2547
1115, 1206, 1207, 1268, 1267, 2487, 2488, 2549, 2548
1116, 1207, 1208, 1269, 1268, 2488, 2489, 2550, 2549
1117, 1208, 1209, 1270, 1269, 2489, 2490, 2551, 2550
1118, 1209, 1210, 1271, 1270, 2490, 2491, 2552, 2551
1119, 1210, 1211, 1272, 1271, 2491, 2492, 2553, 2552
1120, 1211, 1212, 1273, 1272, 2492, 2493, 2554, 2553
1121, 1212, 1213, 1274, 1273, 2493, 2494, 2555, 2554
1122, 1213, 1214, 1275, 1274, 2494, 2495, 2556, 2555
1123, 1214, 1215, 1276, 1275, 2495, 2496, 2557, 2556
1124, 1215, 1216, 1277, 1276, 2496, 2497, 2558, 2557
1125, 1216, 1217, 1278, 1277, 2497, 2498, 2559, 2558
1126, 1217, 1218, 1279, 1278, 2498, 2499, 2560, 2559
1127, 1218, 1219, 1280, 1279, 2499, 2500, 2561, 2560
1128, 1219, 1220, 1281, 1280, 2500, 2501, 2562, 2561
1129, 1282, 1283, 1344, 1343, 2563, 2564, 2625, 2624
1130, 1283, 1284, 1345, 1344, 2564, 2565, 2626, 2625
1131, 1284, 1285, 1346, 1345, 2565, 2566, 2627, 2626
1132, 1285, 1286, 1347, 1346, 2566, 2567, 2628, 2627
1133, 1286, 1287, 1348, 1347, 2567, 2568, 2629, 2628
1134, 1287, 1288, 1349, 1348, 2568, 2569, 2630, 2629
1135, 1288, 1289, 1350, 1349, 2569, 2570, 2631, 2630
1136, 1289, 1290, 1351, 1350, 2570, 2571, 2632, 2631
1137, 1290, 1291, 1352, 1351, 2571, 2572, 2633, 2632
1138, 1291, 1292, 1353, 1352, 2572, 2573, 2634, 2633
1139, 1292, 1293, 1354, 1353, 2573, 2574, 2635, 2634
1140, 1293, 1294, 1355, 1354, 2574, 2575, 2636, 2635
1141, 1294, 1295, 1356, 1355, 2575, 2576, 2637, 2636
1142, 1295, 1296, 1357, 1356, 2576, 2577, 2638, 2637
1143, 1296, 1297, 1358, 1357, 2577, 2578, 2639, 2638
1144, 1297, 1298, 1359, 1358, 2578, 2579, 2640, 2639
1145, 1298, 1299, 1360, 1359, 2579, 2580, 2641, 2640
1146, 1299, 1300, 1361, 1360, 2580, 2581, 2642, 2641
1147, 1300, 1301, 1362, 1361, 2581, 2582, 2643, 2642
1148, 1301, 1302, 1363, 1362, 2582, 2583, 2644, 2643
1149, 1302, 1303, 1364, 1363, 2583, 2584, 2645, 2644
1150, 1303, 1304, 1365, 1364, 2584, 2585, 2646, 2645
1151, 1304, 1305, 1366, 1365, 2585, 2586, 2647, 2646
1152, 1305, 1306, 1367, 1366, 2586, 2587, 2648, 2647
1153, 1306, 1307, 1368, 1367, 2587, 2588, 2649, 2648
1154, 1307, 1308, 1369, 1368, 2588, 2589, 2650, 2649
1155, 1308, 1309, 1370, 1369, 2589, 2590, 2651, 2650
1156, 1309, 1310, 1371, 1370, 2590, 2591, 2652, 2651
1157, 1310, 1311, 1372, 1371, 2591, 2592, 2653, 2652
1158, 1311, 1312, 1373, 1372, 2592, 2593, 2654, 2653
1159, 1312, 1313, 1374, 1373, 2593, 2594, 2655, 2654
1160, 1313, 1314, 1375, 1374, 2594, 2595, 2656, 2655
1161, 1314, 1315, 1376, 1375, 2595, 2596, 2657, 2656
1162, 1315, 1316, 1377, 1376, 2596, 2597, 2658, 2657
1163, 1316, 1317, 1378, 1377, 2597, 2598, 2659, 2658
1164, 1317, 1318, 1379, 1378, 2598, 2599, 2660, 2659
1165, 1318, 1319, 1380, 1379, 2599, 2600, 2661, 2660
1166, 1319, 1320, 1381, 1380, 2600, 2601, 2662, 2661
1167, 1320, 1321, 1382, 1381, 2601, 2602, 2663, 2662
1168, 1321, 1322, 1383, 1382, 2602, 2603, 2664, 2663
1169, 1322, 1323, 1384, 1383, 2603, 2604, 2665, 2664
1170, 1323, 1324, 1385, 1384, 2604, 2605, 2666, 2665
1171, 1324, 1325, 1386, 1385, 2605, 2606, 2667, 2666
1172, 1325, 1326, 1387, 1386, 2606, 2607, 2668, 2667
1173, 1326, 1327, 1388, 1387, 2607, 2608, 2669, 2668
1174, 1327, 1328, 1389, 1388, 2608, 2609, 2670, 2669
1175, 1328, 1329, 1390, 1389, 2609, 2610, 2671, 2670
1176, 1329, 1330, 1391, 1390, 2610, 2611, 2672, 2671
1177, 1330, 1331, 1392, 1391, 2611, 2612, 2673, 2672
1178, 1331, 1332, 1393, 1392, 2612, 2613, 2674, 2673
1179, 1332, 1333, 1394, 1393, 2613, 2614, 2675, 2674
1180, 1333, 1334, 1395, 1394, 2614, 2615, 2676, 2675
1181, 1334, 1335, 1396, 1395, 2615, 2616, 2677, 2676
1182, 1335, 1336, 1397, 1396, 2616, 2617, 2678, 2677
1183, 1336, 1337, 1398, 1397, 2617, 2618, 2679, 2678
1184, 1337, 1338, 1399, 1398, 2618, 2619, 2680, 2679
1185, 1338, 1339, 1400, 1399, 2619, 2620, 2681, 2680
1186, 1339, 1340, 1401, 1400, 2620, 2621, 2682, 2681
1187, 1340, 1341, 1402, 1401, 2621, 2622, 2683, 2682
1188, 1341, 1342, 1403, 1402, 2622, 2623, 2684, 2683
1189, 1343, 1344, 1405, 1404, 2624, 2625, 2686, 2685
1190, 1344, 1345, 1406, 1405, 2625, 2626, 2687, 2686
1191, 1345, 1346, 1407, 1406, 2626, 2627, 2688, 2687
1192, 1346, 1347, 1408, 1407, 2627, 2628, 2689, 2688
1193, 1347, 1348, 1409, 1408, 2628, 2629, 2690, 2689
1194, 1348, 1349, 1410, 1409, 2629, 2630, 2691, 2690
1195, 1349, 1350, 1411, 1410, 2630, 2631, 2692, 2691
1196, 1350, 1351, 1412, 1411, 2631, 2632, 2693, 2692
1197, 1351, 1352, 1413, 1412, 2632, 2633, 2694, 2693
1198, 1352, 1353, 1414, 1413, 2633, 2634, 2695, 2694
1199, 1353, 1354, 1415, 1414, 2634, 2635, 2696, 2695
1200, 1354, 1355, 1416, 1415, 2635, 2636, 2697, 2696
1201, 1355, 1356, 1417, 1416, 2636, 2637, 2698, 2697
1202, 1356, 1357, 1418, 1417, 2637, 2638, 2699, 2698
1203, 1357, 1358, 1419, 1418, 2638, 2639, 2700, 2699
1204, 1358, 1359, 1420, 1419, 2639, 2640, 2701, 2700
1205, 1359, 1360, 1421, 1420, 2640, 2641, 2702, 2701
1206, 1360, 1361, 1422, 1421, 2641, 2642, 2703, 2702
1207, 1361, 1362, 1423, 1422, 2642, 2643, 2704, 2703
1208, 1362, 1363, 1424, 1423, 2643, 2644, 2705, 2704
1209, 1363, 1364, 1425, 1424, 2644, 2645, 2706, 2705
1210, 1364, 1365, 1426, 1425, 2645, 2646, 2707, 2706
1211, 1365, 1366, 1427, 1426, 2646, 2647, 2708, 2707
1212, 1366, 1367, 1428, 1427, 2647, 2648, 2709, 2708
1213, 1367, 1368, 1429, 1428, 2648, 2649, 2710, 2709
1214, 1368, 1369, 1430, 1429, 2649, 2650, 2711, 2710
1215, 1369, 1370, 1431, 1430, 2650, 2651, 2712, 2711
1216, 1370, 1371, 1432, 1431, 2651, 2652, 2713, 2712
1217, 1371, 1372, 1433, 1432, 2652, 2653, 2714, 2713
1218, 1372, 1373, 1434, 1433, 2653, 2654, 2715, 2714
1219, 1373, 1374, 1435, 1434, 2654, 2655, 2716, 2715
1220, 1374, 1375, 1436, 1435, 2655, 2656, 2717, 2716
1221, 1375, 1376, 1437, 1436, 2656, 2657, 2718, 2717
1222, 1376, 1377, 1438, 1437, 2657, 2658, 2719, 2718
1223, 1377, 1378, 1439, 1438, 2658, 2659, 2720, 2719
1224, 1378, 1379, 1440, 1439, 2659, 2660, 2721, 2720
1225, 1379, 1380, 1441, 1440, 2660, 2661, 2722, 2721
1226, 1380, 1381, 1442, 1441, 2661, 2662, 2723, 2722
1227, 1381, 1382, 1443, 1442, 2662, 2663, 2724, 2723
1228, 1382, 1383, 1444, 1443, 2663, 2664, 2725, 2724
1229, 1383, 1384, 1445, 1444, 2664, 2665, 2726, 2725
1230, 1384, 1385, 1446, 1445, 2665, 2666, 2727, 2726
1231, 1385, 1386, 1447, 1446, 2666, 2667, 2728, 2727
1232, 1386, 1387, 1448, 1447, 2667, 2668, 2729, 2728
1233, 1387, 1388, 1449, 1448, 2668, 2669, 2730, 2729
1234, 1388, 1389, 1450, 1449, 2669, 2670, 2731, 2730
1235, 1389, 1390, 1451, 1450, 2670, 2671, 2732, 2731
1236, 1390, 1391, 1452, 1451, 2671, 2672, 2733, 2732
1237, 1391, 1392, 1453, 1452, 2672, 2673, 2734, 2733
1238, 1392, 1393, 1454, 1453, 2673, 2674, 2735, 2734
1239, 1393, 1394, 1455, 1454, 2674, 2675, 2736, 2735
1240, 1394, 1395, 1456, 1455, 2675, 2676, 2737, 2736
1241, 1395, 1396, 1457, 1456, 2676, 2677, 2738, 2737
1242, 1396, 1397, 1458, 1457, 2677, 2678, 2739, 2738
1243, 1397, 1398, 1459, 1458, 2678, 2679, 2740, 2739
1244, 1398, 1399, 1460, 1459, 2679, 2680, 2741, 2740
1245, 1399, 1400, 1461, 1460, 2680, 2681, 2742, 2741
1246, 1400, 1401, 1462, 1461, 2681, 2682, 2743, 2742
1247, 1401, 1402, 1463, 1462, 2682, 2683, 2744, 2743
1248, 1402, 1403, 1464, 1463, 2683, 2684, 2745, 2744
1249, 1404, 1405, 1466, 1465, 2685, 2686, 2747, 2746
1250, 1405, 1406, 1467, 1466, 2686, 2687, 2748, 2747
1251, 1406, 1407, 1468, 1467, 2687, 2688, 2749, 2748
1252, 1407, 1408, 1469, 1468, 2688, 2689, 2750, 2749
1253, 1408, 1409, 1470, 1469, 2689, 2690, 2751, 2750
1254, 1409, 1410, 1471, 1470, 2690, 2691, 2752, 2751
1255, 1410, 1411, 1472, 1471, 2691, 2692, 2753, 2752
1256, 1411, 1412, 1473, 1472, 2692, 2693, 2754, 2753
1257, 1412, 1413, 1474, 1473, 2693, 2694, 2755, 2754
1258, 1413, 1414, 1475, 1474, 2694, 2695, 2756, 2755
1259, 1414, 1415, 1476, 1475, 2695, 2696, 2757, 2756
1260, 1415, 1416, 1477, 1476, 2696, 2697, 2758, 2757
1261, 1416, 1417, 1478, 1477, 2697, 2698, 2759, 2758
1262, 1417, 1418, 1479, 1478, 2698, 2699, 2760, 2759
1263, 1418, 1419, 1480, 1479, 2699, 2700, 2761, 2760
1264, 1419, 1420, 1481, 1480, 2700, 2701, 2762, 2761
1265, 1420, 1421, 1482, 1481, 2701, 2702, 2763, 2762
1266, 1421, 1422, 1483, 1482, 2702, 2703, 2764, 2763
1267, 1422, 1423, 1484, 1483, 2703, 2704, 2765, 2764
1268, 1423, 1424, 1485, 1484, 2704, 2705, 2766, 2765
1269, 1424, 1425, 1486, 1485, 2705, 2706, 2767, 2766
1270, 1425, 1426, 1487, 1486, 2706, 2707, 2768, 2767
1271, 1426, 1427, 1488, 1487, 2707, 2708, 2769, 2768
1272, 1427, 1428, 1489, 1488, 2708, 2709, 2770, 2769
1273, 1428, 1429, 1490, 1489, 2709, 2710, 2771, 2770
1274, 1429, 1430, 1491, 1490, 2710, 2711, 2772, 2771
1275, 1430, 1431, 1492, 1491, 2711, 2712, 2773, 2772
1276, 1431, 1432, 1493, 1492, 2712, 2713, 2774, 2773
1277, 1432, 1433, 1494, 1493, 2713, 2714, 2775, 2774
1278, 1433, 1434, 1495, 1494, 2714, 2715, 2776, 2775
1279, 1434, 1435, 1496, 1495, 2715, 2716, 2777, 2776
1280, 1435, 1436, 1497, 1496, 2716, 2717, 2778, 2777
1281, 1436, 1437, 1498, 1497, 2717, 2718, 2779, 2778
1282, 1437, 1438, 1499, 1498, 2718, 2719, 2780, 2779
1283, 1438, 1439, 1500, 1499, 2719, 2720, 2781, 2780
1284, 1439, 1440, 1501, 1500, 2720, 2721, 2782, 2781
1285, 1440, 1441, 1502, 1501, 2721, 2722, 2783, 2782
1286, 1441, 1442, 1503, 1502, 2722, 2723, 2784, 2783
1287, 1442, 1443, 1504, 1503, 2723, 2724, 2785, 2784
1288, 1443, 1444, 1505, 1504, 2724, 2725, 2786, 2785
1289, 1444, 1445, 1506, 1505, 2725, 2726, 2787, 2786
1290, 1445, 1446, 1507, 1506, 2726, 2727, 2788, 2787
1291, 1446, 1447, 1508, 1507, 2727, 2728, 2789, 2788
1292, 1447, 1448, 1509, 1508, 2728, 2729, 2790, 2789
1293, 1448, 1449, 1510, 1509, 2729, 2730, 2791, 2790
1294, 1449, 1450, 1511, 1510, 2730, 2731, 2792, 2791
1295, 1450, 1451, 1512, 1511, 2731, 2732, 2793, 2792
1296, 1451, 1452, 1513, 1512, 2732, 2733, 2794, 2793
1297, 1452, 1453, 1514, 1513, 2733, 2734, 2795, 2794
1298, 1453, 1454, 1515, 1514, 2734, 2735, 2796, 2795
1299, 1454, 1455, 1516, 1515, 2735, 2736, 2797, 2796
1300, 1455, 1456, 1517, 1516, 2736, 2737, 2798, 2797
1301, 1456, 1457, 1518, 1517, 2737, 2738, 2799, 2798
1302, 1457, 1458, 1519, 1518, 2738, 2739, 2800, 2799
1303, 1458, 1459, 1520, 1519, 2739, 2740, 2801, 2800
1304, 1459, 1460, 1521, 1520, 2740, 2741, 2802, 2801
1305, 1460, 1461, 1522, 1521, 2741, 2742, 2803, 2802
1306, 1461, 1462, 1523, 1522, 2742, 2743, 2804, 2803
1307, 1462, 1463, 1524, 1523, 2743, 2744, 2805, 2804
1308, 1463, 1464, 1525, 1524, 2744, 2745, 2806, 2805
1309, 1465, 1466, 1527, 1526, 2746, 2747, 2808, 2807
1310, 1466, 1467, 1528, 1527, 2747, 2748, 2809, 2808
1311, 1467, 1468, 1529, 1528, 2748, 2749, 2810, 2809
1312, 1468, 1469, 1530, 1529, 2749, 2750, 2811, 2810
1313, 1469, 1470, 1531, 1530, 2750, 2751, 2812, 2811
1314, 1470, 1471, 1532, 1531, 2751, 2752, 2813, 2812
1315, 1471, 1472, 1533, 1532, 2752, 2753, 2814, 2813
1316, 1472, 1473, 1534, 1533, 2753, 2754, 2815, 2814
1317, 1473, 1474, 1535, 1534, 2754, 2755, 2816, 2815
1318, 1474, 1475, 1536, 1535, 2755, 2756, 2817, 2816
1319, 1475, 1476, 1537, 1536, 2756, 2757, 2818, 2817
1320, 1476, 1477, 1538, 1537, 2757, 2758, 2819, 2818
1321, 1477, 1478, 1539, 1538, 2758, 2759, 2820, 2819
1322, 1478, 1479, 1540, 1539, 2759, 2760, 2821, 2820
1323, 1479, 1480, 1541, 1540, 2760, 2761, 2822, 2821
1324, 1480, 1481, 1542, 1541, 2761, 2762, 2823, 2822
1325, 1481, 1482, 1543, 1542, 2762, 2763, 2824, 2823
1326, 1482, 1483, 1544, 1543, 2763, 2764, 2825, 2824
1327, 1483, 1484, 1545, 1544, 2764, 2765, 2826, 2825
1328, 1484, 1485, 1546, 1545, 2765, 2766, 2827, 2826
1329, 1485, 1486, 1547, 1546, 2766, 2767, 2828, 2827
1330, 1486, 1487, 1548, 1547, 2767, 2768, 2829, 2828
1331, 1487, 1488, 1549, 1548, 2768, 2769, 2830, 2829
1332, 1488, 1489, 1550, 1549, 2769, 2770, 2831, 2830
1333, 1489, 1490, 1551, 1550, 2770, 2771, 2832, 2831
1334, 1490, 1491, 1552, 1551, 2771, 2772, 2833, 2832
1335, 1491, 1492, 1553, 1552, 2772, 2773, 2834, 2833
1336, 1492, 1493, 1554, 1553, 2773, 2774, 2835, 2834
1337, 1493, 1494, 1555, 1554, 2774, 2775, 2836, 2835
1338, 1494, 1495, 1556, 1555, 2775, 2776, 2837, 2836
1339, 1495, 1496, 1557, 1556, 2776, 2777, 2838, 2837
1340, 1496, 1497, 1558, 1557, 2777, 2778, 2839, 2838
1341, 1497, 1498, 1559, 1558, 2778, 2779, 2840, 2839
1342, 1498, 1499, 1560, 1559, 2779, 2780, 2841, 2840
1343, 1499, 1500, 1561, 1560, 2780, 2781, 2842, 2841
1344, 1500, 1501, 1562, 1561, 2781, 2782, 2843, 2842
1345, 1501, 1502, 1563, 1562, 2782, 2783, 2844, 2843
1346, 1502, 1503, 1564, 1563, 2783, 2784, 2845, 2844
1347, 1503, 1504, 1565, 1564, 2784, 2785, 2846, 2845
1348, 1504, 1505, 1566, 1565, 2785, 2786, 2847, 2846
1349, 1505, 1506, 1567, 1566, 2786, 2787, 2848, 2847
1350, 1506, 1507, 1568, 1567, 2787, 2788, 2849, 2848
1351, 1507, 1508, 1569, 1568, 2788, 2789, 2850, 2849
1352, 1508, 1509, 1570, 1569, 2789, 2790, 2851, 2850
1353, 1509, 1510, 1571, 1570, 2790, 2791, 2852, 2851
1354, 1510, 1511, 1572, 1571, 2791, 2792, 2853, 2852
1355, 1511, 1512, 1573, 1572, 2792, 2793, 2854, 2853
1356, 1512, 1513, 1574, 1573, 2793, 2794, 2855, 2854
1357, 1513, 1514, 1575, 1574, 2794, 2795, 2856, 2855
1358, 1514, 1515, 1576, 1575, 2795, 2796, 2857, 2856
1359, 1515, 1516, 1577, 1576, 2796, 2797, 2858, 2857
1360, 1516, 1517, 1578, 1577, 2797, 2798, 2859, 2858
1361, 1517, 1518, 1579, 1578, 2798, 2799, 2860, 2859
1362, 1518, 1519, 1580, 1579, 2799, 2800, 2861, 2860
1363, 1519, 1520, 1581, 1580, 2800, 2801, 2862, 2861
1364, 1520, 1521, 1582, 1581, 2801, 2802, 2863, 2862
1365, 1521, 1522, 1583, 1582, 2802, 2803, 2864, 2863
1366, 1522, 1523, 1584, 1583, 2803, 2804, 2865, 2864
1367, 1523, 1524, 1585, 1584, 2804, 2805, 2866, 2865
1368, 1524, 1525, 1586, 1585, 2805, 2806, 2867, 2866
1369, 1526, 1527, 1588, 1587, 2807, 2808, 2869, 2868
1370, 1527, 1528, 1589, 1588, 2808, 2809, 2870, 2869
1371, 1528, 1529, 1590, 1589, 2809, 2810, 2871, 2870
1372, 1529, 1530, 1591, 1590, 2810, 2811, 2872, 2871
1373, 1530, 1531, 1592, 1591, 2811, 2812, 2873, 2872
1374, 1531, 1532, 1593, 1592, 2812, 2813, 2874, 2873
1375, 1532, 1533, 1594, 1593, 2813, 2814, 2875, 2874
1376, 1533, 1534, 1595, 1594, 2814, 2815, 2876, 2875
1377, 1534, 1535, 1596, 1595, 2815, 2816, 2877, 2876
1378, 1535, 1536, 1597, 1596, 2816, 2817, 2878, 2877
1379, 1536, 1537, 1598, 1597, 2817, 2818, 2879, 2878
1380, 1537, 1538, 1599, 1598, 2818, 2819, 2880, 2879
1381, 1538, 1539, 1600, 1599, 2819, 2820, 2881, 2880
1382, 1539, 1540, 1601, 1600, 2820, 2821, 2882, 2881
1383, 1540, 1541, 1602, 1601, 2821, 2822, 2883, 2882
1384, 1541, 1542, 1603, 1602, 2822, 2823, 2884, 2883
1385, 1542, 1543, 1604, 1603, 2823, 2824, 2885, 2884
1386, 1543, 1544, 1605, 1604, 2824, 2825, 2886, 2885
1387, 1544, 1545, 1606, 1605, 2825, 2826, 2887, 2886
1388, 1545, 1546, 1607, 1606, 2826, 2827, 2888, 2887
1389, 1546, 1547, 1608, 1607, 2827, 2828, 2889, 2888
1390, 1547, 1548, 1609, 1608, 2828, 2829, 2890, 2889
1391, 1548, 1549, 1610, 1609, 2829, 2830, 2891, 2890
1392, 1549, 1550, 1611, 1610, 2830, 2831, 2892, 2891
1393, 1550, 1551, 1612, 1611, 2831, 2832, 2893, 2892
1394, 1551, 1552, 1613, 1612, 2832, 2833, 2894, 2893
1395, 1552, 1553, 1614, 1613, 2833, 2834, 2895, 2894
1396, 1553, 1554, 1615, 1614, 2834, 2835, 2896, 2895
1397, 1554, 1555, 1616, 1615, 2835, 2836, 2897, 2896
1398, 1555, 1556, 1617, 1616, 2836, 2837, 2898, 2897
1399, 1556, 1557, 1618, 1617, 2837, 2838, 2899, 2898
1400, 1557, 1558, 1619, 1618, 2838, 2839, 2900, 2899
1401, 1558, 1559, 1620, 1619, 2839, 2840, 2901, 2900
1402, 1559, 1560, 1621, 1620, 2840, 2841, 2902, 2901
1403, 1560, 1561, 1622, 1621, 2841, 2842, 2903, 2902
1404, 1561, 1562, 1623, 1622, 2842, 2843, 2904, 2903
1405, 1562, 1563, 1624, 1623, 2843, 2844, 2905, 2904
1406, 1563, 1564, 1625, 1624, 2844, 2845, 2906, 2905
1407, 1564, 1565, 1626, 1625, 2845, 2846, 2907, 2906
1408, 1565, 1566, 1627, 1626, 2846, 2847, 2908, 2907
1409, 1566, 1567, 1628, 1627, 2847, 2848, 2909, 2908
1410, 1567, 1568, 1629, 1628, 2848, 2849, 2910, 2909
1411, 1568, 1569, 1630, 1629, 2849, 2850, 2911, 2910
1412, 1569, 1570, 1631, 1630, 2850, 2851, 2912, 2911
1413, 1570, 1571, 1632, 1631, 2851, 2852, 2913, 2912
1414, 1571, 1572, 1633, 1632, 2852, 2853, 2914, 2913
1415, 1572, 1573, 1634, 1633, 2853, 2854, 2915, 2914
1416, 1573, 1574, 1635, 1634, 2854, 2855, 2916, 2915
1417, 1574, 1575, 1636, 1635, 2855, 2856, 2917, 2916
1418, 1575, 1576, 1637, 1636, 2856, 2857, 2918, 2917
1419, 1576, 1577, 1638, 1637, 2857, 2858, 2919, 2918
1420, 1577, 1578, 1639, 1638, 2858, 2859, 2920, 2919
1421, 1578, 1579, 1640, 1639, 2859, 2860, 2921, 2920
1422, 1579, 1580, 1641, 1640, 2860, 2861, 2922, 2921
1423, 1580, 1581, 1642, 1641, 2861, 2862, 2923, 2922
1424, 1581, 1582, 1643, 1642, 2862, 2863, 2924, 2923
1425, 1582, 1583, 1644, 1643, 2863, 2864, 2925, 2924
1426, 1583, 1584, 1645, 1644, 2864, 2865, 2926, 2925
1427, 1584, 1585, 1646, 1645, 2865, 2866, 2927, 2926
1428, 1585, 1586, 1647, 1646, 2866, 2867, 2928, 2927
1429, 1587, 1588, 1649, 1648, 2868, 2869, 2930, 2929
1430, 1588, 1589, 1650, 1649, 2869, 2870, 2931, 2930
1431, 1589, 1590, 1651, 1650, 2870, 2871, 2932, 2931
1432, 1590, 1591, 1652, 1651, 2871, 2872, 2933, 2932
1433, 1591, 1592, 1653, 1652, 2872, 2873, 2934, 2933
1434, 1592, 1593, 1654, 1653, 2873, 2874, 2935, 2934
1435, 1593, 1594, 1655, 1654, 2874, 2875, 2936, 2935
1436, 1594, 1595, 1656, 1655, 2875, 2876, 2937, 2936
1437, 1595, 1596, 1657, 1656, 2876, 2877, 2938, 2937
1438, 1596, 1597, 1658, 1657, 2877, 2878, 2939, 2938
1439, 1597, 1598, 1659, 1658, 2878, 2879, 2940, 2939
1440, 1598, 1599, 1660, 1659, 2879, 2880, 2941, 2940
1441, 1599, 1600, 1661, 1660, 2880, 2881, 2942, 2941
1442, 1600, 1601, 1662, 1661, 2881, 2882, 2943, 2942
1443, 1601, 1602, 1663, 1662, 2882, 2883, 2944, 2943
1444, 1602, 1603, 1664, 1663, 2883, 2884, 2945, 2944
1445, 1603, 1604, 1665, 1664, 2884, 2885, 2946, 2945
1446, 1604, 1605, 1666, 1665, 2885, 2886, 2947, 2946
1447, 1605, 1606, 1667, 1666, 2886, 2887, 2948, 2947
1448, 1606, 1607, 1668, 1667, 2887, 2888, 2949, 2948
1449, 1607, 1608, 1669, 1668, 2888, 2889, 2950, 2949
1450, 1608, 1609, 1670, 1669, 2889, 2890, 2951, 2950
1451, 1609, 1610, 1671, 1670, 2890, 2891, 2952, 2951
1452, 1610, 1611, 1672, 1671, 2891, 2892, 2953, 2952
1453, 1611, 1612, 1673, 1672, 2892, 2893, 2954, 2953
1454, 1612, 1613, 1674, 1673, 2893, 2894, 2955, 2954
1455, 1613, 1614, 1675, 1674, 2894, 2895, 2956, 2955
1456, 1614, 1615, 1676, 1675, 2895, 2896, 2957, 2956
1457, 1615, 1616, 1677, 1676, 2896, 2897, 2958, 2957
1458, 1616, 1617, 1678, 1677, 2897, 2898, 2959, 2958
1459, 1617, 1618, 1679, 1678, 2898, 2899, 2960, 2959
1460, 1618, 1619, 1680, 1679, 2899, 2900, 2961, 2960
1461, 1619, 1620, 1681, 1680, 2900, 2901, 2962, 2961
1462, 1620, 1621, 1682, 1681, 2901, 2902, 2963, 2962
1463, 1621, 1622, 1683, 1682, 2902, 2903, 2964, 2963
1464, 1622, 1623, 1684, 1683, 2903, 2904, 2965, 2964
1465, 1623, 1624, 1685, 1684, 2904, 2905, 2966, 2965
1466, 1624, 1625, 1686, 1685, 2905, 2906, 2967, 2966
1467, 1625, 1626, 1687, 1686, 2906, 2907, 2968, 2967
1468, 1626, 1627, 1688, 1687, 2907, 2908, 2969, 2968
1469, 1627, 1628, 1689, 1688, 2908, 2909, 2970, 2969
1470, 1628, 1629, 1690, 1689, 2909, 2910, 2971, 2970
1471, 1629, 1630, 1691, 1690, 2910, 2911, 2972, 2971
1472, 1630, 1631, 1692, 1691, 2911, 2912, 2973, 2972
1473, 1631, 1632, 1693, 1692, 2912, 2913, 2974, 2973
1474, 1632, 1633, 1694, 1693, 2913, 2914, 2975, 2974
1475, 1633, 1634, 1695, 1694, 2914, 2915, 2976, 2975
1476, 1634, 1635, 1696, 1695, 2915, 2916, 2977, 2976
1477, 1635, 1636, 1697, 1696, 2916, 2917, 2978, 2977
1478, 1636, 1637, 1698, 1697, 2917, 2918, 2979, 2978
1479, 1637, 1638, 1699, 1698, 2918, 2919, 2980, 2979
1480, 1638, 1639, 1700, 1699, 2919, 2920, 2981, 2980
1481, 1639, 1640, 1701, 1700, 2920, 2921, 2982, 2981
1482, 1640, 1641, 1702, 1701, 2921, 2922, 2983, 2982
1483, 1641, 1642, 1703, 1702, 2922, 2923, 2984, 2983
1484, 1642, 1643, 1704, 1703, 2923, 2924, 2985, 2984
1485, 1643, 1644, 1705, 1704, 2924, 2925, 2986, 2985
1486, 1644, 1645, 1706, 1705, 2925, 2926, 2987, 2986
1487, 1645, 1646, 1707, 1706, 2926, 2927, 2988, 2987
1488, 1646, 1647, 1708, 1707, 2927, 2928, 2989, 2988
1489, 1648, 1649, 1710, 1709, 2929, 2930, 2991, 2990
1490, 1649, 1650, 1711, 1710, 2930, 2931, 2992, 2991
1491, 1650, 1651, 1712, 1711, 2931, 2932, 2993, 2992
1492, 1651, 1652, 1713, 1712, 2932, 2933, 2994, 2993
1493, 1652, 1653, 1714, 1713, 2933, 2934, 2995, 2994
1494, 1653, 1654, 1715, 1714, 2934, 2935, 2996, 2995
1495, 1654, 1655, 1716, 1715, 2935, 2936, 2997, 2996
1496, 1655, 1656, 1717, 1716, 2936, 2937, 2998, 2997
1497, 1656, 1657, 1718, 1717, 2937, 2938, 2999, 2998
1498, 1657, 1658, 1719, 1718, 2938, 2939, 3000, 2999
1499, 1658, 1659, 1720, 1719, 2939, 2940, 3001, 3000
1500, 1659, 1660, 1721, 1720, 2940, 2941, 3002, 3001
1501, 1660, 1661, 1722, 1721, 2941, 2942, 3003, 3002
1502, 1661, 1662, 1723, 1722, 2942, 2943, 3004, 3003
1503, 1662, 1663, 1724, 1723, 2943, 2944, 3005, 3004
1504, 1663, 1664, 1725, 1724, 2944, 2945, 3006, 3005
1505, 1664, 1665, 1726, 1725, 2945, 2946, 3007, 3006
1506, 1665, 1666, 1727, 1726, 2946, 2947, 3008, 3007
1507, 1666, 1667, 1728, 1727, 2947, 2948, 3009, 3008
1508, 1667, 1668, 1729, 1728, 2948, 2949, 3010, 3009
1509, 1668, 1669, 1730, 1729, 2949, 2950, 3011, 3010
1510, 1669, 1670, 1731, 1730, 2950, 2951, 3012, 3011
1511, 1670, 1671, 1732, 1731, 2951, 2952, 3013, 3012
1512, 1671, 1672, 1733, 1732, 2952, 2953, 3014, 3013
1513, 1672, 1673, 1734, 1733, 2953, 2954, 3015, 3014
1514, 1673, 1674, 1735, 1734, 2954, 2955, 3016, 3015
1515, 1674, 1675, 1736, 1735, 2955, 2956, 3017, 3016
1516, 1675, 1676, 1737, 1736, 2956, 2957, 3018, 3017
1517, 1676, 1677, 1738, 1737, 2957, 2958, 3019, 3018
1518, 1677, 1678, 1739, 1738, 2958, 2959, 3020, 3019
1519, 1678, 1679, 1740, 1739, 2959, 2960, 3021, 3020
1520, 1679, 1680, 1741, 1740, 2960, 2961, 3022, 3021
1521, 1680, 1681, 1742, 1741, 2961, 2962, 3023, 3022
1522, 1681, 1682, 1743, 1742, 2962, 2963, 3024, 3023
1523, 1682, 1683, 1744, 1743, 2963, 2964, 3025, 3024
1524, 1683, 1684, 1745, 1744, 2964, 2965, 3026, 3025
1525, 1684, 1685, 1746, 1745, 2965, 2966, 3027, 3026
1526, 1685, 1686, 1747, 1746, 2966, 2967, 3028, 3027
1527, 1686, 1687, 1748, 1747, 2967, 2968, 3029, 3028
1528, 1687, 1688, 1749, 1748, 2968, 2969, 3030, 3029
1529, 1688, 1689, 1750, 1749, 2969, 2970, 3031, 3030
1530, 1689, 1690, 1751, 1750, 2970, 2971, 3032, 3031
1531, 1690, 1691, 1752, 1751, 2971, 2972, 3033, 3032
1532, 1691, 1692, 1753, 1752, 2972, 2973, 3034, 3033
1533, 1692, 1693, 1754, 1753, 2973, 2974, 3035, 3034
1534, 1693, 1694, 1755, 1754, 2974, 2975, 3036, 3035
1535, 1694, 1695, 1756, 1755, 2975, 2976, 3037, 3036
1536, 1695, 1696, 1757, 1756, 2976, 2977, 3038, 3037
1537, 1696, 1697, 1758, 1757, 2977, 2978, 3039, 3038
1538, 1697, 1698, 1759, 1758, 2978, 2979, 3040, 3039
1539, 1698, 1699, 1760, 1759, 2979, 2980, 3041, 3040
1540, 1699, 1700, 1761, 1760, 2980, 2981, 3042, 3041
1541, 1700, 1701, 1762, 1761, 2981, 2982, 3043, 3042
1542, 1701, 1702, 1763, 1762, 2982, 2983, 3044, 3043
1543, 1702, 1703, 1764, 1763, 2983, 2984, 3045, 3044
1544, 1703, 1704, 1765, 1764, 2984, 2985, 3046, 3045
1545, 1704, 1705, 1766, 1765, 2985, 2986, 3047, 3046
1546, 1705, 1706, 1767, 1766, 2986, 2987, 3048, 3047
1547, 1706, 1707, 1768, 1767, 2987, 2988, 3049, 3048
1548, 1707, 1708, 1769, 1768, 2988, 2989, 3050, 3049
1549, 1709, 1710, 1771, 1770, 2990, 2991, 3052, 3051
1550, 1710, 1711, 1772, 1771, 2991, 2992, 3053, 3052
1551, 1711, 1712, 1773, 1772, 2992, 2993, 3054, 3053
1552, 1712, 1713, 1774, 1773, 2993, 2994, 3055, 3054
1553, 1713, 1714, 1775, 1774, 2994, 2995, 3056, 3055
1554, 1714, 1715, 1776, 1775, 2995, 2996, 3057, 3056
1555, 1715, 1716, 1777, 1776, 2996, 2997, 3058, 3057
1556, 1716, 1717, 1778, 1777, 2997, 2998, 3059, 3058
1557, 1717, 1718, 1779, 1778, 2998, 2999, 3060, 3059
1558, 1718, 1719, 1780, 1779, 2999, 3000, 3061, 3060
1559, 1719, 1720, 1781, 1780, 3000, 3001, 3062, 3061
1560, 1720, 1721, 1782, 1781, 3001, 3002, 3063, 3062
1561, 1721, 1722, 1783, 1782, 3002, 3003, 3064, 3063
1562, 1722, 1723, 1784, 1783, 3003, 3004, 3065, 3064
1563, 1723, 1724, 1785, 1784, 3004, 3005, 3066, 3065
1564, 1724, 1725, 1786, 1785, 3005, 3006, 3067, 3066
1565, 1725, 1726, 1787, 1786, 3006, 3007, 3068, 3067
1566, 1726, 1727, 1788, 1787, 3007, 3008, 3069, 3068
1567, 1727, 1728, 1789, 1788, 3008, 3009, 3070, 3069
1568, 1728, 1729, 1790, 1789, 3009, 3010, 3071, 3070
1569, 1729, 1730, 1791, 1790, 3010, 3011, 3072, 3071
1570, 1730, 1731, 1792, 1791, 3011, 3012, 3073, 3072
1571, 1731, 1732, 1793, 1792, 3012, 3013, 3074, 3073
1572, 1732, 1733, 1794, 1793, 3013, 3014, 3075, 3074
1573, 1733, 1734, 1795, 1794, 3014, 3015, 3076, 3075
1574, 1734, 1735, 1796, 1795, 3015, 3016, 3077, 3076
1575, 1735, 1736, 1797, 1796, 3016, 3017, 3078, 3077
1576, 1736, 1737, 1798, 1797, 3017, 3018, 3079, 3078
1577, 1737, 1738, 1799, 1798, 3018, 3019, 3080, 3079
1578, 1738, 1739, 1800, 1799, 3019, 3020, 3081, 3080
1579, 1739, 1740, 1801, 1800, 3020, 3021, 3082, 3081
1580, 1740, 1741, 1802, 1801, 3021, 3022, 3083, 3082
1581, 1741, 1742, 1803, 1802, 3022, 3023, 3084, 3083
1582, 1742, 1743, 1804, 1803, 3023, 3024, 3085, 3084
1583, 1743, 1744, 1805, 1804, 3024, 3025, 3086, 3085
1584, 1744, 1745, 1806, 1805, 3025, 3026, 3087, 3086
1585, 1745, 1746, 1807, 1806, 3026, 3027, 3088, 3087
1586, 1746, 1747, 1808, 1807, 3027, 3028, 3089, 3088
1587, 1747, 1748, 1809, 1808, 3028, 3029, 3090, 3089
1588, 1748, 1749, 1810, 1809, 3029, 3030, 3091, 3090
1589, 1749, 1750, 1811, 1810, 3030, 3031, 3092, 3091
1590, 1750, 1751, 1812, 1811, 3031, 3032, 3093, 3092
1591, 1751, 1752, 1813, 1812, 3032, 3033, 3094, 3093
1592, 1752, 1753, 1814, 1813, 3033, 3034, 3095, 3094
1593, 1753, 1754, 1815, 1814, 3034, 3035, 3096, 3095
1594, 1754, 1755, 1816, 1815, 3035, 3036, 3097, 3096
1595, 1755, 1756, 1817, 1816, 3036, 3037, 3098, 3097
1596, 1756, 1757, 1818, 1817, 3037, 3038, 3099, 3098
1597, 1757, 1758, 1819, 1818, 3038, 3039, 3100, 3099
1598, 1758, 1759, 1820, 1819, 3039, 3040, 3101, 3100
1599, 1759, 1760, 1821, 1820, 3040, 3041, 3102, 3101
1600, 1760, 1761, 1822, 1821, 3041, 3042, 3103, 3102
1601, 1761, 1762, 1823, 1822, 3042, 3043, 3104, 3103
1602, 1762, 1763, 1824, 1823, 3043, 3044, 3105, 3104
1603, 1763, 1764, 1825, 1824, 3044, 3045, 3106, 3105
1604, 1764, 1765, 1826, 1825, 3045, 3046, 3107, 3106
1605, 1765, 1766, 1827, 1826, 3046, 3047, 3108, 3107
1606, 1766, 1767, 1828, 1827, 3047, 3048, 3109, 3108
1607, 1767, 1768, 1829, 1828, 3048, 3049, 3110, 3109
1608, 1768, 1769, 1830, 1829, 3049, 3050, 3111, 3110
1609, 1770, 1771, 1832, 1831, 3051, 3052, 3113, 3112
1610, 1771, 1772, 1833, 1832, 3052, 3053, 3114, 3113
1611, 1772, 1773, 1834, 1833, 3053, 3054, 3115, 3114
1612, 1773, 1774, 1835, 1834, 3054, 3055, 3116, 3115
1613, 1774, 1775, 1836, 1835, 3055, 3056, 3117, 3116
1614, 1775, 1776, 1837, 1836, 3056, 3057, 3118, 3117
1615, 1776, 1777, 1838, 1837, 3057, 3058, 3119, 3118
1616, 1777, 1778, 1839, 1838, 3058, 3059, 3120, 3119
1617, 1778, 1779, 1840, 1839, 3059, 3060, 3121, 3120
1618, 1779, 1780, 1841, 1840, 3060, 3061, 3122, 3121
1619, 1780, 1781, 1842, 1841, 3061, 3062, 3123, 3122
1620, 1781, 1782, 1843, 1842, 3062, 3063, 3124, 3123
1621, 1782, 1783, 1844, 1843, 3063, 3064, 3125, 3124
1622, 1783, 1784, 1845, 1844, 3064, 3065, 3126, 3125
1623, 1784, 1785, 1846, 1845, 3065, 3066, 3127, 3126
1624, 1785, 1786, 1847, 1846, 3066, 3067, 3128, 3127
1625, 1786, 1787, 1848, 1847, 3067, 3068, 3129, 3128
1626, 1787, 1788, 1849, 1848, 3068, 3069, 3130, 3129
1627, 1788, 1789, 1850, 1849, 3069, 3070, 3131, 3130
1628, 1789, 1790, 1851, 1850, 3070, 3071, 3132, 3131
1629, 1790, 1791, 1852, 1851, 3071, 3072, 3133, 3132
1630, 1791, 1792, 1853, 1852, 3072, 3073, 3134, 3133
1631, 1792, 1793, 1854, 1853, 3073, 3074, 3135, 3134
1632, 1793, 1794, 1855, 1854, 3074, 3075, 3136, 3135
1633, 1794, 1795, 1856, 1855, 3075, 3076, 3137, 3136
1634, 1795, 1796, 1857, 1856, 3076, 3077, 3138, 3137
1635, 1796, 1797, 1858, 1857, 3077, 3078, 3139, 3138
1636, 1797, 1798, 1859, 1858, 3078, 3079, 3140, 3139
1637, 1798, 1799, 1860, 1859, 3079, 3080, 3141, 3140
1638, 1799, 1800, 1861, 1860, 3080, 3081, 3142, 3141
1639, 1800, 1801, 1862, 1861, 3081, 3082, 3143, 3142
1640, 1801, 1802, 1863, 1862, 3082, 3083, 3144, 3143
1641, 1802, 1803, 1864, 1863, 3083, 3084, 3145, 3144
1642, 1803, 1804, 1865, 1864, 3084, 3085, 3146, 3145
1643, 1804, 1805, 1866, 1865, 3085, 3086, 3147, 3146
1644, 1805, 1806, 1867, 1866, 3086, 3087, 3148, 3147
1645, 1806, 1807, 1868, 1867, 3087, 3088, 3149, 3148
1646, 1807, 1808, 1869, 1868, 3088, 3089, 3150, 3149
1647, 1808, 1809, 1870, 1869, 3089, 3090, 3151, 3150
1648, 1809, 1810, 1871, 1870, 3090, 3091, 3152, 3151
1649, 1810, 1811, 1872, 1871, 3091, 3092, 3153, 3152
1650, 1811, 1812, 1873, 1872, 3092, 3093, 3154, 3153
1651, 1812, 1813, 1874, 1873, 3093, 3094, 3155, 3154
1652, 1813, 1814, 1875, 1874, 3094, 3095, 3156, 3155
1653, 1814, 1815, 1876, 1875, 3095, 3096, 3157, 3156
1654, 1815, 1816, 1877, 1876, 3096, 3097, 3158, 3157
1655, 1816, 1817, 1878, 1877, 3097, 3098, 3159, 3158
1656, 1817, 1818, 1879, 1878, 3098, 3099, 3160, 3159
1657, 1818, 1819, 1880, 1879, 3099, 3100, 3161, 3160
1658, 1819, 1820, 1881, 1880, 3100, 3101, 3162, 3161
1659, 1820, 1821, 1882, 1881, 3101, 3102, 3163, 3162
1660, 1821, 1822, 1883, 1882, 3102, 3103, 3164, 3163
1661, 1822, 1823, 1884, 1883, 3103, 3104, 3165, 3164
1662, 1823, 1824, 1885, 1884, 3104, 3105, 3166, 3165
1663, 1824, 1825, 1886, 1885, 3105, 3106, 3167, 3166
1664, 1825, 1826, 1887, 1886, 3106, 3107, 3168, 3167
1665, 1826, 1827, 1888, 1887, 3107, 3108, 3169, 3168
1666, 1827, 1828, 1889, 1888, 3108, 3109, 3170, 3169
1667, 1828, 1829, 1890, 1889, 3109, 3110, 3171, 3170
1668, 1829, 1830, 1891, 1890, 3110, 3111, 3172, 3171
1669, 1831, 1832, 1893, 1892, 3112, 3113, 3174, 3173
1670, 1832, 1833, 1894, 1893, 3113, 3114, 3175, 3174
1671, 1833, 1834, 1895, 1894, 3114, 3115, 3176, 3175
1672, 1834, 1835, 1896, 1895, 3115, 3116, 3177, 3176
1673, 1835, 1836, 1897, 1896, 3116, 3117, 3178, 3177
1674, 1836, 1837, 1898, 1897, 3117, 3118, 3179, 3178
1675, 1837, 1838, 1899, 1898, 3118, 3119, 3180, 3179
1676, 1838, 1839, 1900, 1899, 3119, 3120, 3181, 3180
1677, 1839, 1840, 1901, 1900, 3120, 3121, 3182, 3181
1678, 1840, 1841, 1902, 1901, 3121, 3122, 3183, 3182
1679, 1841, 1842, 1903, 1902, 3122, 3123, 3184, 3183
1680, 1842, 1843, 1904, 1903, 3123, 3124, 3185, 3184
1681, 1843, 1844, 1905, 1904, 3124, 3125, 3186, 3185
1682, 1844, 1845, 1906, 1905, 3125, 3126, 3187, 3186
1683, 1845, 1846, 1907, 1906, 3126, 3127, 3188, 3187
1684, 1846, 1847, 1908, 1907, 3127, 3128, 3189, 3188
1685, 1847, 1848, 1909, 1908, 3128, 3129, 3190, 3189
1686, 1848, 1849, 1910, 1909, 3129, 3130, 3191, 3190
1687, 1849, 1850, 1911, 1910, 3130, 3131, 3192, 3191
1688, 1850, 1851, 1912, 1911, 3131, 3132, 3193, 3192
1689, 1851, 1852, 1913, 1912, 3132, 3133, 3194, 3193
1690, 1852, 1853, 1914, 1913, 3133, 3134, 3195, 3194
1691, 1853, 1854, 1915, 1914, 3134, 3135, 3196, 3195
1692, 1854, 1855, 1916, 1915, 3135, 3136, 3197, 3196
1693, 1855, 1856, 1917, 1916, 3136, 3137, 3198, 3197
1694, 1856, 1857, 1918, 1917, 3137, 3138, 3199, 3198
1695, 1857, 1858, 1919, 1918, 3138, 3139, 3200, 3199
1696, 1858, 1859, 1920, 1919, 3139, 3140, 3201, 3200
1697, 1859, 1860, 1921, 1920, 3140, 3141, 3202, 3201
1698, 1860, 1861, 1922, 1921, 3141, 3142, 3203, 3202
1699, 1861, 1862, 1923, 1922, 3142, 3143, 3204, 3203
1700, 1862, 1863, 1924, 1923, 3143, 3144, 3205, 3204
1701, 1863, 1864, 1925, 1924, 3144, 3145, 3206, 3205
1702, 1864, 1865, 1926, 1925, 3145, 3146, 3207, 3206
1703, 1865, 1866, 1927, 1926, 3146, 3147, 3208, 3207
1704, 1866, 1867, 1928, 1927, 3147, 3148, 3209, 3208
1705, 1867, 1868, 1929, 1928, 3148, 3149, 3210, 3209
1706, 1868, 1869, 1930, 1929, 3149, 3150, 3211, 3210
1707, 1869, 1870, 1931, 1930, 3150, 3151, 3212, 3211
1708, 1870, 1871, 1932, 1931, 3151, 3152, 3213, 3212
1709, 1871, 1872, 1933, 1932, 3152, 3153, 3214, 3213
1710, 1872, 1873, 1934, 1933, 3153, 3154, 3215, 3214
1711, 1873, 1874, 1935, 1934, 3154, 3155, 3216, 3215
1712, 1874, 1875, 1936, 1935, 3155, 3156, 3217, 3216
1713, 1875, 1876, 1937, 1936, 3156, 3157, 3218, 3217
1714, 1876, 1877, 1938, 1937, 3157, 3158, 3219, 3218
1715, 1877, 1878, 1939, 1938, 3158, 3159, 3220, 3219
1716, 1878, 1879, 1940, 1939, 3159, 3160, 3221, 3220
1717, 1879, 1880, 1941, 1940, 3160, 3161, 3222, 3221
1718, 1880, 1881, 1942, 1941, 3161, 3162, 3223, 3222
1719, 1881, 1882, 1943, 1942, 3162, 3163, 3224, 3223
1720, 1882, 1883, 1944, 1943, 3163, 3164, 3225, 3224
1721, 1883, 1884, 1945, 1944, 3164, 3165, 3226, 3225
1722, 1884, 1885, 1946, 1945, 3165, 3166, 3227, 3226
1723, 1885, 1886, 1947, 1946, 3166, 3167, 3228, 3227
1724, 1886, 1887, 1948, 1947, 3167, 3168, 3229, 3228
1725, 1887, 1888, 1949, 1948, 3168, 3169, 3230, 3229
1726, 1888, 1889, 1950, 1949, 3169, 3170, 3231, 3230
1727, 1889, 1890, 1951, 1950, 3170, 3171, 3232, 3231
1728, 1890, 1891, 1952, 1951, 3171, 3172, 3233, 3232
1729, 1892, 1893, 1954, 1953, 3173, 3174, 3235, 3234
1730, 1893, 1894, 1955, 1954, 3174, 3175, 3236, 3235
1731, 1894, 1895, 1956, 1955, 3175, 3176, 3237, 3236
1732, 1895, 1896, 1957, 1956, 3176, 3177, 3238, 3237
1733, 1896, 1897, 1958, 1957, 3177, 3178, 3239, 3238
1734, 1897, 1898, 1959, 1958, 3178, 3179, 3240, 3239
1735, 1898, 1899, 1960, 1959, 3179, 3180, 3241, 3240
1736, 1899, 1900, 1961, 1960, 3180, 3181, 3242, 3241
1737, 1900, 1901, 1962, 1961, 3181, 3182, 3243, 3242
1738, 1901, 1902, 1963, 1962, 3182, 3183, 3244, 3243
1739, 1902, 1903, 1964, 1963, 3183, 3184, 3245, 3244
1740, 1903, 1904, 1965, 1964, 3184, 3185, 3246, 3245
1741, 1904, 1905, 1966, 1965, 3185, 3186, 3247, 3246
1742, 1905, 1906, 1967, 1966, 3186, 3187, 3248, 3247
1743, 1906, 1907, 1968, 1967, 3187, 3188, 3249, 3248
1744, 1907, 1908, 1969, 1968, 3188, 3189, 3250, 3249
1745, 1908, 1909, 1970, 1969, 3189, 3190, 3251, 3250
1746, 1909, 1910, 1971, 1970, 3190, 3191, 3252, 3251
1747, 1910, 1911, 1972, 1971, 3191, 3192, 3253, 3252
1748, 1911, 1912, 1973, 1972, 3192, 3193, 3254, 3253
1749, 1912, 1913, 1974, 1973, 3193, 3194, 3255, 3254
1750, 1913, 1914, 1975, 1974, 3194, 3195, 3256, 3255
1751, 1914, 1915, 1976, 1975, 3195, 3196, 3257, 3256
1752, 1915, 1916, 1977, 1976, 3196, 3197, 3258, 3257
1753, 1916, 1917, 1978, 1977, 3197, 3198, 3259, 3258
1754, 1917, 1918, 1979, 1978, 3198, 3199, 3260, 3259
1755, 1918, 1919, 1980, 1979, 3199, 3200, 3261, 3260
1756, 1919, 1920, 1981, 1980, 3200, 3201, 3262, 3261
1757, 1920, 1921, 1982, 1981, 3201, 3202, 3263, 3262
1758, 1921, 1922, 1983, 1982, 3202, 3203, 3264, 3263
1759, 1922, 1923, 1984, 1983, 3203, 3204, 3265, 3264
1760, 1923, 1924, 1985, 1984, 3204, 3205, 3266, 3265
1761, 1924, 1925, 1986, 1985, 3205, 3206, 3267, 3266
1762, 1925, 1926, 1987, 1986, 3206, 3207, 3268, 3267
1763, 1926, 1927, 1988, 1987, 3207, 3208, 3269, 3268
1764, 1927, 1928, 1989, 1988, 3208, 3209, 3270, 3269
1765, 1928, 1929, 1990, 1989, 3209, 3210, 3271, 3270
1766, 1929, 1930, 1991, 1990, 3210, 3211, 3272, 3271
1767, 1930, 1931, 1992, 1991, 3211, 3212, 3273, 3272
1768, 1931, 1932, 1993, 1992, 3212, 3213, 3274, 3273
1769, 1932, 1933, 1994, 1993, 3213, 3214, 3275, 3274
1770, 1933, 1934, 1995, 1994, 3214, 3215, 3276, 3275
1771, 1934, 1935, 1996, 1995, 3215, 3216, 3277, 3276
1772, 1935, 1936, 1997, 1996, 3216, 3217, 3278, 3277
1773, 1936, 1937, 1998, 1997, 3217, 3218, 3279, 3278
1774, 1937, 1938, 1999, 1998, 3218, 3219, 3280, 3279
1775, 1938, 1939, 2000, 1999, 3219, 3220, 3281, 3280
1776, 1939, 1940, 2001, 2000, 3220, 3221, 3282, 3281
1777, 1940, 1941, 2002, 2001, 3221, 3222, 3283, 3282
1778, 1941, 1942, 2003, 2002, 3222, 3223, 3284, 3283
1779, 1942, 1943, 2004, 2003, 3223, 3224, 3285, 3284
1780, 1943, 1944, 2005, 2004, 3224, 3225, 3286, 3285
1781, 1944, 1945, 2006, 2005, 3225, 3226, 3287, 3286
1782, 1945, 1946, 2007, 2006, 3226, 3227, 3288, 3287
1783, 1946, 1947, 2008, 2007, 3227, 3228, 3289, 3288
1784, 1947, 1948, 2009, 2008, 3228, 3229, 3290, 3289
1785, 1948, 1949, 2010, 2009, 3229, 3230, 3291, 3290
1786, 1949, 1950, 2011, 2010, 3230, 3231, 3292, 3291
1787, 1950, 1951, 2012, 2011, 3231, 3232, 3293, 3292
1788, 1951, 1952, 2013, 2012, 3232, 3233, 3294, 3293
1789, 1953, 1954, 2015, 2014, 3234, 3235, 3296, 3295
1790, 1954, 1955, 2016, 2015, 3235, 3236, 3297, 3296
1791, 1955, 1956, 2017, 2016, 3236, 3237, 3298, 3297
1792, 1956, 1957, 2018, 2017, 3237, 3238, 3299, 3298
1793, 1957, 1958, 2019, 2018, 3238, 3239, 3300, 3299
1794, 1958, 1959, 2020, 2019, 3239, 3240, 3301, 3300
1795, 1959, 1960, 2021, 2020, 3240, 3241, 3302, 3301
1796, 1960, 1961, 2022, 2021, 3241, 3242, 3303, 3302
1797, 1961, 1962, 2023, 2022, 3242, 3243, 3304, 3303
1798, 1962, 1963, 2024, 2023, 3243, 3244, 3305, 3304
1799, 1963, 1964, 2025, 2024, 3244, 3245, 3306, 3305
1800, 1964, 1965, 2026, 2025, 3245, 3246, 3307, 3306
1801, 1965, 1966, 2027, 2026, 3246, 3247, 3308, 3307
1802, 1966, 1967, 2028, 2027, 3247, 3248, 3309, 3308
1803, 1967, 1968, 2029, 2028, 3248, 3249, 3310, 3309
1804, 1968, 1969, 2030, 2029, 3249, 3250, 3311, 3310
1805, 1969, 1970, 2031, 2030, 3250, 3251, 3312, 3311
1806, 1970, 1971, 2032, 2031, 3251, 3252, 3313, 3312
1807, 1971, 1972, 2033, 2032, 3252, 3253, 3314, 3313
1808, 1972, 1973, 2034, 2033, 3253, 3254, 3315, 3314
1809, 1973, 1974, 2035, 2034, 3254, 3255, 3316, 3315
1810, 1974, 1975, 2036, 2035, 3255, 3256, 3317, 3316
1811, 1975, 1976, 2037, 2036, 3256, 3257, 3318, 3317
1812, 1976, 1977, 2038, 2037, 3257, 3258, 3319, 3318
1813, 1977, 1978, 2039, 2038, 3258, 3259, 3320, 3319
1814, 1978, 1979, 2040, 2039, 3259, 3260, 3321, 3320
1815, 1979, 1980, 2041, 2040, 3260, 3261, 3322, 3321
1816, 1980, 1981, 2042, 2041, 3261, 3262, 3323, 3322
1817, 1981, 1982, 2043, 2042, 3262, 3263, 3324, 3323
1818, 1982, 1983, 2044, 2043, 3263, 3264, 3325, 3324
1819, 1983, 1984, 2045, 2044, 3264, 3265, 3326, 3325
1820, 1984, 1985, 2046, 2045, 3265, 3266, 3327, 3326
1821, 1985, 1986, 2047, 2046, 3266, 3267, 3328, 3327
1822, 1986, 1987, 2048, 2047, 3267, 3268, 3329, 3328
1823, 1987, 1988, 2049, 2048, 3268, 3269, 3330, 3329
1824, 1988, 1989, 2050, 2049, 3269, 3270, 3331, 3330
1825, 1989, 1990, 2051, 2050, 3270, 3271, 3332, 3331
1826, 1990, 1991, 2052, 2051, 3271, 3272, 3333, 3332
1827, 1991, 1992, 2053, 2052, 3272, 3273, 3334, 3333
1828, 1992, 1993, 2054, 2053, 3273, 3274, 3335, 3334
1829, 1993, 1994, 2055, 2054, 3274, 3275, 3336, 3335
1830, 1994, 1995, 2056, 2055, 3275, 3276, 3337, 3336
1831, 1995, 1996, 2057, 2056, 3276, 3277, 3338, 3337
1832, 1996, 1997, 2058, 2057, 3277, 3278, 3339, 3338
1833, 1997, 1998, 2059, 2058, 3278, 3279, 3340, 3339
1834, 1998, 1999, 2060, 2059, 3279, 3280, 3341, 3340
1835, 1999, 2000, 2061, 2060, 3280, 3281, 3342, 3341
1836, 2000, 2001, 2062, 2061, 3281, 3282, 3343, 3342
1837, 2001, 2002, 2063, 2062, 3282, 3283, 3344, 3343
1838, 2002, 2003, 2064, 2063, 3283, 3284, 3345, 3344
1839, 2003, 2004, 2065, 2064, 3284, 3285, 3346, 3345
1840, 2004, 2005, 2066, 2065, 3285, 3286, 3347, 3346
1841, 2005, 2006, 2067, 2066, 3286, 3287, 3348, 3347
1842, 2006, 2007, 2068, 2067, 3287, 3288, 3349, 3348
1843, 2007, 2008, 2069, 2068, 3288, 3289, 3350, 3349
1844, 2008, 2009, 2070, 2069, 3289, 3290, 3351, 3350
1845, 2009, 2010, 2071, 2070, 3290, 3291, 3352, 3351
1846, 2010, 2011, 2072, 2071, 3291, 3292, 3353, 3352
1847, 2011, 2012, 2073, 2072, 3292, 3293, 3354, 3353
1848, 2012, 2013, 2074, 2073, 3293, 3294, 3355, 3354
1849, 2014, 2015, 2076, 2075, 3295, 3296, 3357, 3356
1850, 2015, 2016, 2077, 2076, 3296, 3297, 3358, 3357
1851, 2016, 2017, 2078, 2077, 3297, 3298, 3359, 3358
1852, 2017, 2018, 2079, 2078, 3298, 3299, 3360, 3359
1853, 2018, 2019, 2080, 2079, 3299, 3300, 3361, 3360
1854, 2019, 2020, 2081, 2080, 3300, 3301, 3362, 3361
1855, 2020, 2021, 2082, 2081, 3301, 3302, 3363, 3362
1856, 2021, 2022, 2083, 2082, 3302, 3303, 3364, 3363
1857, 2022, 2023, 2084, 2083, 3303, 3304, 3365, 3364
1858, 2023, 2024, 2085, 2084, 3304, 3305, 3366, 3365
1859, 2024, 2025, 2086, 2085, 3305, 3306, 3367, 3366
1860, 2025, 2026, 2087, 2086, 3306, 3307, 3368, 3367
1861, 2026, 2027, 2088, 2087, 3307, 3308, 3369, 3368
1862, 2027, 2028, 2089, 2088, 3308, 3309, 3370, 3369
1863, 2028, 2029, 2090, 2089, 3309, 3310, 3371, 3370
1864, 2029, 2030, 2091, 2090, 3310, 3311, 3372, 3371
1865, 2030, 2031, 2092, 2091, 3311, 3312, 3373, 3372
1866, 2031, 2032, 2093, 2092, 3312, 3313, 3374, 3373
1867, 2032, 2033, 2094, 2093, 3313, 3314, 3375, 3374
1868, 2033, 2034, 2095, 2094, 3314, 3315, 3376, 3375
1869, 2034, 2035, 2096, 2095, 3315, 3316, 3377, 3376
1870, 2035, 2036, 2097, 2096, 3316, 3317, 3378, 3377
1871, 2036, 2037, 2098, 2097, 3317, 3318, 3379, 3378
1872, 2037, 2038, 2099, 2098, 3318, 3319, 3380, 3379
1873, 2038, 2039, 2100, 2099, 3319, 3320, 3381, 3380
1874, 2039, 2040, 2101, 2100, 3320, 3321, 3382, 3381
1875, 2040, 2041, 2102, 2101, 3321, 3322, 3383, 3382
1876, 2041, 2042, 2103, 2102, 3322, 3323, 3384, 3383
1877, 2042, 2043, 2104, 2103, 3323, 3324, 3385, 3384
1878, 2043, 2044, 2105, 2104, 3324, 3325, 3386, 3385
1879, 2044, 2045, 2106, 2105, 3325, 3326, 3387, 3386
1880, 2045, 2046, 2107, 2106, 3326, 3327, 3388, 3387
1881, 2046, 2047, 2108, 2107, 3327, 3328, 3389, 3388
1882, 2047, 2048, 2109, 2108, 3328, 3329, 3390, 3389
1883, 2048, 2049, 2110, 2109, 3329, 3330, 3391, 3390
1884, 2049, 2050, 2111, 2110, 3330, 3331, 3392, 3391
1885, 2050, 2051, 2112, 2111, 3331, 3332, 3393, 3392
1886, 2051, 2052, 2113, 2112, 3332, 3333, 3394, 3393
1887, 2052, 2053, 2114, 2113, 3333, 3334, 3395, 3394
1888, 2053, 2054, 2115, 2114, 3334, 3335, 3396, 3395
1889, 2054, 2055, 2116, 2115, 3335, 3336, 3397, 3396
1890, 2055, 2056, 2117, 2116, 3336, 3337, 3398, 3397
1891, 2056, 2057, 2118, 2117, 3337, 3338, 3399, 3398
1892, 2057, 2058, 2119, 2118, 3338, 3339, 3400, 3399
1893, 2058, 2059, 2120, 2119, 3339, 3340, 3401, 3400
1894, 2059, 2060, 2121, 2120, 3340, 3341, 3402, 3401
1895, 2060, 2061, 2122, 2121, 3341, 3342, 3403, 3402
1896, 2061, 2062, 2123, 2122, 3342, 3343, 3404, 3403
1897, 2062, 2063, 2124, 2123, 3343, 3344, 3405, 3404
1898, 2063, 2064, 2125, 2124, 3344, 3345, 3406, 3405
1899, 2064, 2065, 2126, 2125, 3345, 3346, 3407, 3406
1900, 2065, 2066, 2127, 2126, 3346, 3347, 3408, 3407
1901, 2066, 2067, 2128, 2127, 3347, 3348, 3409, 3408
1902, 2067, 2068, 2129, 2128, 3348, 3349, 3410, 3409
1903, 2068, 2069, 2130, 2129, 3349, 3350, 3411, 3410
1904, 2069, 2070, 2131, 2130, 3350, 3351, 3412, 3411
1905, 2070, 2071, 2132, 2131, 3351, 3352, 3413, 3412
1906, 2071, 2072, 2133, 2132, 3352, 3353, 3414, 3413
1907, 2072, 2073, 2134, 2133, 3353, 3354, 3415, 3414
1908, 2073, 2074, 2135, 2134, 3354, 3355, 3416, 3415
1909, 2075, 2076, 2137, 2136, 3356, 3357, 3418, 3417
1910, 2076, 2077, 2138, 2137, 3357, 3358, 3419, 3418
1911, 2077, 2078, 2139, 2138, 3358, 3359, 3420, 3419
1912, 2078, 2079, 2140, 2139, 3359, 3360, 3421, 3420
1913, 2079, 2080, 2141, 2140, 3360, 3361, 3422, 3421
1914, 2080, 2081, 2142, 2141, 3361, 3362, 3423, 3422
1915, 2081, 2082, 2143, 2142, 3362, 3363, 3424, 3423
1916, 2082, 2083, 2144, 2143, 3363, 3364, 3425, 3424
1917, 2083, 2084, 2145, 2144, 3364, 3365, 3426, 3425
1918, 2084, 2085, 2146, 2145, 3365, 3366, 3427, 3426
1919, 2085, 2086, 2147, 2146, 3366, 3367, 3428, 3427
1920, 2086, 2087, 2148, 2147, 3367, 3368, 3429, 3428
1921, 2087, 2088, 2149, 2148, 3368, 3369, 3430, 3429
1922, 2088, 2089, 2150, 2149, 3369, 3370, 3431, 3430
1923, 2089, 2090, 2151, 2150, 3370, 3371, 3432, 3431
1924, 2090, 2091, 2152, 2151, 3371, 3372, 3433, 3432
1925, 2091, 2092, 2153, 2152, 3372, 3373, 3434, 3433
1926, 2092, 2093, 2154, 2153, 3373, 3374, 3435, 3434
1927, 2093, 2094, 2155, 2154, 3374, 3375, 3436, 3435
1928, 2094, 2095, 2156, 2155, 3375, 3376, 3437, 3436
1929, 2095, 2096, 2157, 2156, 3376, 3377, 3438, 3437
1930, 2096, 2097, 2158, 2157, 3377, 3378, 3439, 3438
1931, 2097, 2098, 2159, 2158, 3378, 3379, 3440, 3439
1932, 2098, 2099, 2160, 2159, 3379, 3380, 3441, 3440
1933, 2099, 2100, 2161, 2160, 3380, 3381, 3442, 3441
1934, 2100, 2101, 2162, 2161, 3381, 3382, 3443, 3442
1935, 2101, 2102, 2163, 2162, 3382, 3383, 3444, 3443
1936, 2102, 2103, 2164, 2163, 3383, 3384, 3445, 3444
1937, 2103, 2104, 2165, 2164, 3384, 3385, 3446, 3445
1938, 2104, 2105, 2166, 2165, 3385, 3386, 3447, 3446
1939, 2105, 2106, 2167, 2166, 3386, 3387, 3448, 3447
1940, 2106, 2107, 2168, 2167, 3387, 3388, 3449, 3448
1941, 2107, 2108, 2169, 2168, 3388, 3389, 3450, 3449
1942, 2108, 2109, 2170, 2169, 3389, 3390, 3451, 3450
1943, 2109, 2110, 2171, 2170, 3390, 3391, 3452, 3451
1944, 2110, 2111, 2172, 2171, 3391, 3392, 3453, 3452
1945, 2111, 2112, 2173, 2172, 3392, 3393, 3454, 3453
1946, 2112, 2113, 2174, 2173, 3393, 3394, 3455, 3454
1947, 2113, 2114, 2175, 2174, 3394, 3395, 3456, 3455
1948, 2114, 2115, 2176, 2175, 3395, 3396, 3457, 3456
1949, 2115, 2116, 2177, 2176, 3396, 3397, 3458, 3457
1950, 2116, 2117, 2178, 2177, 3397, 3398, 3459, 3458
1951, 2117, 2118, 2179, 2178, 3398, 3399, 3460, 3459
1952, 2118, 2119, 2180, 2179, 3399, 3400, 3461, 3460
1953, 2119, 2120, 2181, 2180, 3400, 3401, 3462, 3461
1954, 2120, 2121, 2182, 2181, 3401, 3402, 3463, 3462
1955, 2121, 2122, 2183, 2182, 3402, 3403, 3464, 3463
1956, 2122, 2123, 2184, 2183, 3403, 3404, 3465, 3464
1957, 2123, 2124, 2185, 2184, 3404, 3405, 3466, 3465
1958, 2124, 2125, 2186, 2185, 3405, 3406, 3467, 3466
1959, 2125, 2126, 2187, 2186, 3406, 3407, 3468, 3467
1960, 2126, 2127, 2188, 2187, 3407, 3408, 3469, 3468
1961, 2127, 2128, 2189, 2188, 3408, 3409, 3470, 3469
1962, 2128, 2129, 2190, 2189, 3409, 3410, 3471, 3470
1963, 2129, 2130, 2191, 2190, 3410, 3411, 3472, 3471
1964, 2130, 2131, 2192, 2191, 3411, 3412, 3473, 3472
1965, 2131, 2132, 2193, 2192, 3412, 3413, 3474, 3473
1966, 2132, 2133, 2194, 2193, 3413, 3414, 3475, 3474
1967, 2133, 2134, 2195, 2194, 3414, 3415, 3476, 3475
1968, 2134, 2135, 2196, 2195, 3415, 3416, 3477, 3476
1969, 2136, 2137, 2198, 2197, 3417, 3418, 3479, 3478
1970, 2137, 2138, 2199, 2198, 3418, 3419, 3480, 3479
1971, 2138, 2139, 2200, 2199, 3419, 3420, 3481, 3480
1972, 2139, 2140, 2201, 2200, 3420, 3421, 3482, 3481
1973, 2140, 2141, 2202, 2201, 3421, 3422, 3483, 3482
1974, 2141, 2142, 2203, 2202, 3422, 3423, 3484, 3483
1975, 2142, 2143, 2204, 2203, 3423, 3424, 3485, 3484
1976, 2143, 2144, 2205, 2204, 3424, 3425, 3486, 3485
1977, 2144, 2145, 2206, 2205, 3425, 3426, 3487, 3486
1978, 2145, 2146, 2207, 2206, 3426, 3427, 3488, 3487
1979, 2146, 2147, 2208, 2207, 3427, 3428, 3489, 3488
1980, 2147, 2148, 2209, 2208, 3428, 3429, 3490, 3489
1981, 2148, 2149, 2210, 2209, 3429, 3430, 3491, 3490
1982, 2149, 2150, 2211, 2210, 3430, 3431, 3492, 3491
1983, 2150, 2151, 2212, 2211, 3431, 3432, 3493, 3492
1984, 2151, 2152, 2213, 2212, 3432, 3433, 3494, 3493
1985, 2152, 2153, 2214, 2213, 3433, 3434, 3495, 3494
1986, 2153, 2154, 2215, 2214, 3434, 3435, 3496, 3495
1987, 2154, 2155, 2216, 2215, 3435, 3436, 3497, 3496
1988, 2155, 2156, 2217, 2216, 3436, 3437, 3498, 3497
1989, 2156, 2157, 2218, 2217, 3437, 3438, 3499, 3498
1990, 2157, 2158, 2219, 2218, 3438, 3439, 3500, 3499
1991, 2158, 2159, 2220, 2219, 3439, 3440, 3501, 3500
1992, 2159, 2160, 2221, 2220, 3440, 3441, 3502, 3501
1993, 2172, 2173, 2234, 2233, 3453, 3454, 3515, 3514
1994, 2173, 2174, 2235, 2234, 3454, 3455, 3516, 3515
1995, 2174, 2175, 2236, 2235, 3455, 3456, 3517, 3516
1996, 2175, 2176, 2237, 2236, 3456, 3457, 3518, 3517
1997, 2176, 2177, 2238, 2237, 3457, 3458, 3519, 3518
1998, 2177, 2178, 2239, 2238, 3458, 3459, 3520, 3519
1999, 2178, 2179, 2240, 2239, 3459, 3460, 3521, 3520
2000, 2179, 2180, 2241, 2240, 3460, 3461, 3522, 3521
2001, 2180, 2181, 2242, 2241, 3461, 3462, 3523, 3522
2002, 2181, 2182, 2243, 2242, 3462, 3463, 3524, 3523
2003, 2182, 2183, 2244, 2243, 3463, 3464, 3525, 3524
2004, 2183, 2184, 2245, 2244, 3464, 3465, 3526, 3525
2005, 2184, 2185, 2246, 2245, 3465, 3466, 3527, 3526
2006, 2185, 2186, 2247, 2246, 3466, 3467, 3528, 3527
2007, 2186, 2187, 2248, 2247, 3467, 3468, 3529, 3528
2008, 2187, 2188, 2249, 2248, 3468, 3469, 3530, 3529
2009, 2188, 2189, 2250, 2249, 3469, 3470, 3531, 3530
2010, 2189, 2190, 2251, 2250, 3470, 3471, 3532, 3531
2011, 2190, 2191, 2252, 2251, 3471, 3472, 3533, 3532
2012, 2191, 2192, 2253, 2252, 3472, 3473, 3534, 3533
2013, 2192, 2193, 2254, 2253, 3473, 3474, 3535, 3534
2014, 2193, 2194, 2255, 2254, 3474, 3475, 3536, 3535
2015, 2194, 2195, 2256, 2255, 3475, 3476, 3537, 3536
2016, 2195, 2196, 2257, 2256, 3476, 3477, 3538, 3537
2017, 2197, 2198, 2259, 2258, 3478, 3479, 3540, 3539
2018, 2198, 2199, 2260, 2259, 3479, 3480, 3541, 3540
2019, 2199, 2200, 2261, 2260, 3480, 3481, 3542, 3541
2020, 2200, 2201, 2262, 2261, 3481, 3482, 3543, 3542
2021, 2201, 2202, 2263, 2262, 3482, 3483, 3544, 3543
2022, 2202, 2203, 2264, 2263, 3483, 3484, 3545, 3544
2023, 2203, 2204, 2265, 2264, 3484, 3485, 3546, 3545
2024, 2204, 2205, 2266, 2265, 3485, 3486, 3547, 3546
2025, 2205, 2206, 2267, 2266, 3486, 3487, 3548, 3547
2026, 2206, 2207, 2268, 2267, 3487, 3488, 3549, 3548
2027, 2207, 2208, 2269, 2268, 3488, 3489, 3550, 3549
2028, 2208, 2209, 2270, 2269, 3489, 3490, 3551, 3550
2029, 2209, 2210, 2271, 2270, 3490, 3491, 3552, 3551
2030, 2210, 2211, 2272, 2271, 3491, 3492, 3553, 3552
2031, 2211, 2212, 2273, 2272, 3492, 3493, 3554, 3553
2032, 2212, 2213, 2274, 2273, 3493, 3494, 3555, 3554
2033, 2213, 2214, 2275, 2274, 3494, 3495, 3556, 3555
2034, 2214, 2215, 2276, 2275, 3495, 3496, 3557, 3556
2035, 2215, 2216, 2277, 2276, 3496, 3497, 3558, 3557
2036, 2216, 2217, 2278, 2277, 3497, 3498, 3559, 3558
2037, 2217, 2218, 2279, 2278, 3498, 3499, 3560, 3559
2038, 2218, 2219, 2280, 2279, 3499, 3500, 3561, 3560
2039, 2219, 2220, 2281, 2280, 3500, 3501, 3562, 3561
2040, 2220, 2221, 2282, 2281, 3501, 3502, 3563, 3562
2041, 2233, 2234, 2295, 2294, 3514, 3515, 3576, 3575
2042, 2234, 2235, 2296, 2295, 3515, 3516, 3577, 3576
2043, 2235, 2236, 2297, 2296, 3516, 3517, 3578, 3577
2044, 2236, 2237, 2298, 2297, 3517, 3518, 3579, 3578
2045, 2237, 2238, 2299, 2298, 3518, 3519, 3580, 3579
2046, 2238, 2239, 2300, 2299, 3519, 3520, 3581, 3580
2047, 2239, 2240, 2301, 2300, 3520, 3521, 3582, 3581
2048, 2240, 2241, 2302, 2301, 3521, 3522, 3583, 3582
2049, 2241, 2242, 2303, 2302, 3522, 3523, 3584, 3583
2050, 2242, 2243, 2304, 2303, 3523, 3524, 3585, 3584
2051, 2243, 2244, 2305, 2304, 3524, 3525, 3586, 3585
2052, 2244, 2245, 2306, 2305, 3525, 3526, 3587, 3586
2053, 2245, 2246, 2307, 2306, 3526, 3527, 3588, 3587
2054, 2246, 2247, 2308, 2307, 3527, 3528, 3589, 3588
2055, 2247, 2248, 2309, 2308, 3528, 3529, 3590, 3589
2056, 2248, 2249, 2310, 2309, 3529, 3530, 3591, 3590
2057, 2249, 2250, 2311, 2310, 3530, 3531, 3592, 3591
2058, 2250, 2251, 2312, 2311, 3531, 3532, 3593, 3592
2059, 2251, 2252, 2313, 2312, 3532, 3533, 3594, 3593
2060, 2252, 2253, 2314, 2313, 3533, 3534, 3595, 3594
2061, 2253, 2254, 2315, 2314, 3534, 3535, 3596, 3595
2062, 2254, 2255, 2316, 2315, 3535, 3536, 3597, 3596
2063, 2255, 2256, 2317, 2316, 3536, 3537, 3598, 3597
2064, 2256, 2257, 2318, 2317, 3537, 3538, 3599, 3598
2065, 2258, 2259, 2320, 2319, 3539, 3540, 3601, 3600
2066, 2259, 2260, 2321, 2320, 3540, 3541, 3602, 3601
2067, 2260, 2261, 2322, 2321, 3541, 3542, 3603, 3602
2068, 2261, 2262, 2323, 2322, 3542, 3543, 3604, 3603
2069, 2262, 2263, 2324, 2323, 3543, 3544, 3605, 3604
2070, 2263, 2264, 2325, 2324, 3544, 3545, 3606, 3605
2071, 2264, 2265, 2326, 2325, 3545, 3546, 3607, 3606
2072, 2265, 2266, 2327, 2326, 3546, 3547, 3608, 3607
2073, 2266, 2267, 2328, 2327, 3547, 3548, 3609, 3608
2074, 2267, 2268, 2329, 2328, 3548, 3549, 3610, 3609
2075, 2268, 2269, 2330, 2329, 3549, 3550, 3611, 3610
2076, 2269, 2270, 2331, 2330, 3550, 3551, 3612, 3611
2077, 2270, 2271, 2332, 2331, 3551, 3552, 3613, 3612
2078, 2271, 2272, 2333, 2332, 3552, 3553, 3614, 3613
2079, 2272, 2273, 2334, 2333, 3553, 3554, 3615, 3614
2080, 2273, 2274, 2335, 2334, 3554, 3555, 3616, 3615
2081, 2274, 2275, 2336, 2335, 3555, 3556, 3617, 3616
2082, 2275, 2276, 2337, 2336, 3556, 3557, 3618, 3617
2083, 2276, 2277, 2338, 2337, 3557, 3558, 3619, 3618
2084, 2277, 2278, 2339, 2338, 3558, 3559, 3620, 3619
2085, 2278, 2279, 2340, 2339, 3559, 3560, 3621, 3620
2086, 2279, 2280, 2341, 2340, 3560, 3561, 3622, 3621
2087, 2280, 2281, 2342, 2341, 3561, 3562, 3623, 3622
2088, 2281, 2282, 2343, 2342, 3562, 3563, 3624, 3623
2089, 2294, 2295, 2356, 2355, 3575, 3576, 3637, 3636
2090, 2295, 2296, 2357, 2356, 3576, 3577, 3638, 3637
2091, 2296, 2297, 2358, 2357, 3577, 3578, 3639, 3638
2092, 2297, 2298, 2359, 2358, 3578, 3579, 3640, 3639
2093, 2298, 2299, 2360, 2359, 3579, 3580, 3641, 3640
2094, 2299, 2300, 2361, 2360, 3580, 3581, 3642, 3641
2095, 2300, 2301, 2362, 2361, 3581, 3582, 3643, 3642
2096, 2301, 2302, 2363, 2362, 3582, 3583, 3644, 3643
2097, 2302, 2303, 2364, 2363, 3583, 3584, 3645, 3644
2098, 2303, 2304, 2365, 2364, 3584, 3585, 3646, 3645
2099, 2304, 2305, 2366, 2365, 3585, 3586, 3647, 3646
2100, 2305, 2306, 2367, 2366, 3586, 3587, 3648, 3647
2101, 2306, 2307, 2368, 2367, 3587, 3588, 3649, 3648
2102, 2307, 2308, 2369, 2368, 3588, 3589, 3650, 3649
2103, 2308, 2309, 2370, 2369, 3589, 3590, 3651, 3650
2104, 2309, 2310, 2371, 2370, 3590, 3591, 3652, 3651
2105, 2310, 2311, 2372, 2371, 3591, 3592, 3653, 3652
2106, 2311, 2312, 2373, 2372, 3592, 3593, 3654, 3653
2107, 2312, 2313, 2374, 2373, 3593, 3594, 3655, 3654
2108, 2313, 2314, 2375, 2374, 3594, 3595, 3656, 3655
2109, 2314, 2315, 2376, 2375, 3595, 3596, 3657, 3656
2110, 2315, 2316, 2377, 2376, 3596, 3597, 3658, 3657
2111, 2316, 2317, 2378, 2377, 3597, 3598, 3659, 3658
2112, 2317, 2318, 2379, 2378, 3598, 3599, 3660, 3659
2113, 2319, 2320, 2381, 2380, 3600, 3601, 3662, 3661
2114, 2320, 2321, 2382, 2381, 3601, 3602, 3663, 3662
2115, 2321, 2322, 2383, 2382, 3602, 3603, 3664, 3663
2116, 2322, 2323, 2384, 2383, 3603, 3604, 3665, 3664
2117, 2323, 2324, 2385, 2384, 3604, 3605, 3666, 3665
2118, 2324, 2325, 2386, 2385, 3605, 3606, 3667, 3666
2119, 2325, 2326, 2387, 2386, 3606, 3607, 3668, 3667
2120, 2326, 2327, 2388, 2387, 3607, 3608, 3669, 3668
2121, 2327, 2328, 2389, 2388, 3608, 3609, 3670, 3669
2122, 2328, 2329, 2390, 2389, 3609, 3610, 3671, 3670
2123, 2329, 2330, 2391, 2390, 3610, 3611, 3672, 3671
2124, 2330, 2331, 2392, 2391, 3611, 3612, 3673, 3672
2125, 2331, 2332, 2393, 2392, 3612, 3613, 3674, 3673
2126, 2332, 2333, 2394, 2393, 3613, 3614, 3675, 3674
2127, 2333, 2334, 2395, 2394, 3614, 3615, 3676, 3675
2128, 2334, 2335, 2396, 2395, 3615, 3616, 3677, 3676
2129, 2335, 2336, 2397, 2396, 3616, 3617, 3678, 3677
2130, 2336, 2337, 2398, 2397, 3617, 3618, 3679, 3678
2131, 2337, 2338, 2399, 2398, 3618, 3619, 3680, 3679
2132, 2338, 2339, 2400, 2399, 3619, 3620, 3681, 3680
2133, 2339, 2340, 2401, 2400, 3620, 3621, 3682, 3681
2134, 2340, 2341, 2402, 2401, 3621, 3622, 3683, 3682
2135, 2341, 2342, 2403, 2402, 3622, 3623, 3684, 3683
2136, 2342, 2343, 2404, 2403, 3623, 3624, 3685, 3684
2137, 2355, 2356, 2417, 2416, 3636, 3637, 3698, 3697
2138, 2356, 2357, 2418, 2417, 3637, 3638, 3699, 3698
2139, 2357, 2358, 2419, 2418, 3638, 3639, 3700, 3699
2140, 2358, 2359, 2420, 2419, 3639, 3640, 3701, 3700
2141, 2359, 2360, 2421, 2420, 3640, 3641, 3702, 3701
2142, 2360, 2361, 2422, 2421, 3641, 3642, 3703, 3702
2143, 2361, 2362, 2423, 2422, 3642, 3643, 3704, 3703
2144, 2362, 2363, 2424, 2423, 3643, 3644, 3705, 3704
2145, 2363, 2364, 2425, 2424, 3644, 3645, 3706, 3705
2146, 2364, 2365, 2426, 2425, 3645, 3646, 3707, 3706
2147, 2365, 2366, 2427, 2426, 3646, 3647, 3708, 3707
2148, 2366, 2367, 2428, 2427, 3647, 3648, 3709, 3708
2149, 2367, 2368, 2429, 2428, 3648, 3649, 3710, 3709
2150, 2368, 2369, 2430, 2429, 3649, 3650, 3711, 3710
2151, 2369, 2370, 2431, 2430, 3650, 3651, 3712, 3711
2152, 2370, 2371, 2432, 2431, 3651, 3652, 3713, 3712
2153, 2371, 2372, 2433, 2432, 3652, 3653, 3714, 3713
2154, 2372, 2373, 2434, 2433, 3653, 3654, 3715, 3714
2155, 2373, 2374, 2435, 2434, 3654, 3655, 3716, 3715
2156, 2374, 2375, 2436, 2435, 3655, 3656, 3717, 3716
2157, 2375, 2376, 2437, 2436, 3656, 3657, 3718, 3717
2158, 2376, 2377, 2438, 2437, 3657, 3658, 3719, 3718
2159, 2377, 2378, 2439, 2438, 3658, 3659, 3720, 3719
2160, 2378, 2379, 2440, 2439, 3659, 3660, 3721, 3720
2161, 2380, 2381, 2442, 2441, 3661, 3662, 3723, 3722
2162, 2381, 2382, 2443, 2442, 3662, 3663, 3724, 3723
2163, 2382, 2383, 2444, 2443, 3663, 3664, 3725, 3724
2164, 2383, 2384, 2445, 2444, 3664, 3665, 3726, 3725
2165, 2384, 2385, 2446, 2445, 3665, 3666, 3727, 3726
2166, 2385, 2386, 2447, 2446, 3666, 3667, 3728, 3727
2167, 2386, 2387, 2448, 2447, 3667, 3668, 3729, 3728
2168, 2387, 2388, 2449, 2448, 3668, 3669, 3730, 3729
2169, 2388, 2389, 2450, 2449, 3669, 3670, 3731, 3730
2170, 2389, 2390, 2451, 2450, 3670, 3671, 3732, 3731
2171, 2390, 2391, 2452, 2451, 3671, 3672, 3733, 3732
2172, 2391, 2392, 2453, 2452, 3672, 3673, 3734, 3733
2173, 2392, 2393, 2454, 2453, 3673, 3674, 3735, 3734
2174, 2393, 2394, 2455, 2454, 3674, 3675, 3736, 3735
2175, 2394, 2395, 2456, 2455, 3675, 3676, 3737, 3736
2176, 2395, 2396, 2457, 2456, 3676, 3677, 3738, 3737
2177, 2396, 2397, 2458, 2457, 3677, 3678, 3739, 3738
2178, 2397, 2398, 2459, 2458, 3678, 3679, 3740, 3739
2179, 2398, 2399, 2460, 2459, 3679, 3680, 3741, 3740
2180, 2399, 2400, 2461, 2460, 3680, 3681, 3742, 3741
2181, 2400, 2401, 2462, 2461, 3681, 3682, 3743, 3742
2182, 2401, 2402, 2463, 2462, 3682, 3683, 3744, 3743
2183, 2402, 2403, 2464, 2463, 3683, 3684, 3745, 3744
2184, 2403, 2404, 2465, 2464, 3684, 3685, 3746, 3745
2185, 2416, 2417, 2478, 2477, 3697, 3698, 3759, 3758
2186, 2417, 2418, 2479, 2478, 3698, 3699, 3760, 3759
2187, 2418, 2419, 2480, 2479, 3699, 3700, 3761, 3760
2188, 2419, 2420, 2481, 2480, 3700, 3701, 3762, 3761
2189, 2420, 2421, 2482, 2481, 3701, 3702, 3763, 3762
2190, 2421, 2422, 2483, 2482, 3702, 3703, 3764, 3763
2191, 2422, 2423, 2484, 2483, 3703, 3704, 3765, 3764
2192, 2423, 2424, 2485, 2484, 3704, 3705, 3766, 3765
2193, 2424, 2425, 2486, 2485, 3705, 3706, 3767, 3766
2194, 2425, 2426, 2487, 2486, 3706, 3707, 3768, 3767
2195, 2426, 2427, 2488, 2487, 3707, 3708, 3769, 3768
2196, 2427, 2428, 2489, 2488, 3708, 3709, 3770, 3769
2197, 2428, 2429, 2490, 2489, 3709, 3710, 3771, 3770
2198, 2429, 2430, 2491, 2490, 3710, 3711, 3772, 3771
2199, 2430, 2431, 2492, 2491, 3711, 3712, 3773, 3772
2200, 2431, 2432, 2493, 2492, 3712, 3713, 3774, 3773
2201, 2432, 2433, 2494, 2493, 3713, 3714, 3775, 3774
2202, 2433, 2434, 2495, 2494, 3714, 3715, 3776, 3775
2203, 2434, 2435, 2496, 2495, 3715, 3716, 3777, 3776
2204, 2435, 2436, 2497, 2496, 3716, 3717, 3778, 3777
2205, 2436, 2437, 2498, 2497, 3717, 3718, 3779, 3778
2206, 2437, 2438, 2499, 2498, 3718, 3719, 3780, 3779
2207, 2438, 2439, 2500, 2499, 3719, 3720, 3781, 3780
2208, 2439, 2440, 2501, 2500, 3720, 3721, 3782, 3781
2209, 2441, 2442, 2503, 2502, 3722, 3723, 3784, 3783
2210, 2442, 2443, 2504, 2503, 3723, 3724, 3785, 3784
2211, 2443, 2444, 2505, 2504, 3724, 3725, 3786, 3785
2212, 2444, 2445, 2506, 2505, 3725, 3726, 3787, 3786
2213, 2445, 2446, 2507, 2506, 3726, 3727, 3788, 3787
2214, 2446, 2447, 2508, 2507, 3727, 3728, 3789, 3788
2215, 2447, 2448, 2509, 2508, 3728, 3729, 3790, 3789
2216, 2448, 2449, 2510, 2509, 3729, 3730, 3791, 3790
2217, 2449, 2450, 2511, 2510, 3730, 3731, 3792, 3791
2218, 2450, 2451, 2512, 2511, 3731, 3732, 3793, 3792
2219, 2451, 2452, 2513, 2512, 3732, 3733, 3794, 3793
2220, 2452, 2453, 2514, 2513, 3733, 3734, 3795, 3794
2221, 2453, 2454, 2515, 2514, 3734, 3735, 3796, 3795
2222, 2454, 2455, 2516, 2515, 3735, 3736, 3797, 3796
2223, 2455, 2456, 2517, 2516, 3736, 3737, 3798, 3797
2224, 2456, 2457, 2518, 2517, 3737, 3738, 3799, 3798
2225, 2457, 2458, 2519, 2518, 3738, 3739, 3800, 3799
2226, 2458, 2459, 2520, 2519, 3739, 3740, 3801, 3800
2227, 2459, 2460, 2521, 2520, 3740, 3741, 3802, 3801
2228, 2460, 2461, 2522, 2521, 3741, 3742, 3803, 3802
2229, 2461, 2462, 2523, 2522, 3742, 3743, 3804, 3803
2230, 2462, 2463, 2524, 2523, 3743, 3744, 3805, 3804
2231, 2463, 2464, 2525, 2524, 3744, 3745, 3806, 3805
2232, 2464, 2465, 2526, 2525, 3745, 3746, 3807, 3806
2233, 2477, 2478, 2539, 2538, 3758, 3759, 3820, 3819
2234, 2478, 2479, 2540, 2539, 3759, 3760, 3821, 3820
2235, 2479, 2480, 2541, 2540, 3760, 3761, 3822, 3821
2236, 2480, 2481, 2542, 2541, 3761, 3762, 3823, 3822
2237, 2481, 2482, 2543, 2542, 3762, 3763, 3824, 3823
2238, 2482, 2483, 2544, 2543, 3763, 3764, 3825, 3824
2239, 2483, 2484, 2545, 2544, 3764, 3765, 3826, 3825
2240, 2484, 2485, 2546, 2545, 3765, 3766, 3827, 3826
2241, 2485, 2486, 2547, 2546, 3766, 3767, 3828, 3827
2242, 2486, 2487, 2548, 2547, 3767, 3768, 3829, 3828
2243, 2487, 2488, 2549, 2548, 3768, 3769, 3830, 3829
2244, 2488, 2489, 2550, 2549, 3769, 3770, 3831, 3830
2245, 2489, 2490, 2551, 2550, 3770, 3771, 3832, 3831
2246, 2490, 2491, 2552, 2551, 3771, 3772, 3833, 3832
2247, 2491, 2492, 2553, 2552, 3772, 3773, 3834, 3833
2248, 2492, 2493, 2554, 2553, 3773, 3774, 3835, 3834
2249, 2493, 2494, 2555, 2554, 3774, 3775, 3836, 3835
2250, 2494, 2495, 2556, 2555, 3775, 3776, 3837, 3836
2251, 2495, 2496, 2557, 2556, 3776, 3777, 3838, 3837
2252, 2496, 2497, 2558, 2557, 3777, 3778, 3839, 3838
2253, 2497, 2498, 2559, 2558, 3778, 3779, 3840, 3839
2254, 2498, 2499, 2560, 2559, 3779, 3780, 3841, 3840
2255, 2499, 2500, 2561, 2560, 3780, 3781, 3842, 3841
2256, 2500, 2501, 2562, 2561, 3781, 3782, 3843, 3842
2257, 2563, 2564, 2625, 2624, 3844, 3845, 3906, 3905
2258, 2564, 2565, 2626, 2625, 3845, 3846, 3907, 3906
2259, 2565, 2566, 2627, 2626, 3846, 3847, 3908, 3907
2260, 2566, 2567, 2628, 2627, 3847, 3848, 3909, 3908
2261, 2567, 2568, 2629, 2628, 3848, 3849, 3910, 3909
2262, 2568, 2569, 2630, 2629, 3849, 3850, 3911, 3910
2263, 2569, 2570, 2631, 2630, 3850, 3851, 3912, 3911
2264, 2570, 2571, 2632, 2631, 3851, 3852, 3913, 3912
2265, 2571, 2572, 2633, 2632, 3852, 3853, 3914, 3913
2266, 2572, 2573, 2634, 2633, 3853, 3854, 3915, 3914
2267, 2573, 2574, 2635, 2634, 3854, 3855, 3916, 3915
2268, 2574, 2575, 2636, 2635, 3855, 3856, 3917, 3916
2269, 2575, 2576, 2637, 2636, 3856, 3857, 3918, 3917
2270, 2576, 2577, 2638, 2637, 3857, 3858, 3919, 3918
2271, 2577, 2578, 2639, 2638, 3858, 3859, 3920, 3919
2272, 2578, 2579, 2640, 2639, 3859, 3860, 3921, 3920
2273, 2579, 2580, 2641, 2640, 3860, 3861, 3922, 3921
2274, 2580, 2581, 2642, 2641, 3861, 3862, 3923, 3922
2275, 2581, 2582, 2643, 2642, 3862, 3863, 3924, 3923
2276, 2582, 2583, 2644, 2643, 3863, 3864, 3925, 3924
2277, 2583, 2584, 2645, 2644, 3864, 3865, 3926, 3925
2278, 2584, 2585, 2646, 2645, 3865, 3866, 3927, 3926
2279, 2585, 2586, 2647, 2646, 3866, 3867, 3928, 3927
2280, 2586, 2587, 2648, 2647, 3867, 3868, 3929, 3928
2281, 2587, 2588, 2649, 2648, 3868, 3869, 3930, 3929
2282, 2588, 2589, 2650, 2649, 3869, 3870, 3931, 3930
2283, 2589, 2590, 2651, 2650, 3870, 3871, 3932, 3931
2284, 2590, 2591, 2652, 2651, 3871, 3872, 3933, 3932
2285, 2591, 2592, 2653, 2652, 3872, 3873, 3934, 3933
2286, 2592, 2593, 2654, 2653, 3873, 3874, 3935, 3934
2287, 2593, 2594, 2655, 2654, 3874, 3875, 3936, 3935
2288, 2594, 2595, 2656, 2655, 3875, 3876, 3937, 3936
2289, 2595, 2596, 2657, 2656, 3876, 3877, 3938, 3937
2290, 2596, 2597, 2658, 2657, 3877, 3878, 3939, 3938
2291, 2597, 2598, 2659, 2658, 3878, 3879, 3940, 3939
2292, 2598, 2599, 2660, 2659, 3879, 3880, 3941, 3940
2293, 2599, 2600, 2661, 2660, 3880, 3881, 3942, 3941
2294, 2600, 2601, 2662, 2661, 3881, 3882, 3943, 3942
2295, 2601, 2602, 2663, 2662, 3882, 3883, 3944, 3943
2296, 2602, 2603, 2664, 2663, 3883, 3884, 3945, 3944
2297, 2603, 2604, 2665, 2664, 3884, 3885, 3946, 3945
2298, 2604, 2605, 2666, 2665, 3885, 3886, 3947, 3946
2299, 2605, 2606, 2667, 2666, 3886, 3887, 3948, 3947
2300, 2606, 2607, 2668, 2667, 3887, 3888, 3949, 3948
2301, 2607, 2608, 2669, 2668, 3888, 3889, 3950, 3949
2302, 2608, 2609, 2670, 2669, 3889, 3890, 3951, 3950
2303, 2609, 2610, 2671, 2670, 3890, 3891, 3952, 3951
2304, 2610, 2611, 2672, 2671, 3891, 3892, 3953, 3952
2305, 2611, 2612, 2673, 2672, 3892, 3893, 3954, 3953
2306, 2612, 2613, 2674, 2673, 3893, 3894, 3955, 3954
2307, 2613, 2614, 2675, 2674, 3894, 3895, 3956, 3955
2308, 2614, 2615, 2676, 2675, 3895, 3896, 3957, 3956
2309, 2615, 2616, 2677, 2676, 3896, 3897, 3958, 3957
2310, 2616, 2617, 2678, 2677, 3897, 3898, 3959, 3958
2311, 2617, 2618, 2679, 2678, 3898, 3899, 3960, 3959
2312, 2618, 2619, 2680, 2679, 3899, 3900, 3961, 3960
2313, 2619, 2620, 2681, 2680, 3900, 3901, 3962, 3961
2314, 2620, 2621, 2682, 2681, 3901, 3902, 3963, 3962
2315, 2621, 2622, 2683, 2682, 3902, 3903, 3964, 3963
2316, 2622, 2623, 2684, 2683, 3903, 3904, 3965, 3964
2317, 2624, 2625, 2686, 2685, 3905, 3906, 3967, 3966
2318, 2625, 2626, 2687, 2686, 3906, 3907, 3968, 3967
2319, 2626, 2627, 2688, 2687, 3907, 3908, 3969, 3968
2320, 2627, 2628, 2689, 2688, 3908, 3909, 3970, 3969
2321, 2628, 2629, 2690, 2689, 3909, 3910, 3971, 3970
2322, 2629, 2630, 2691, 2690, 3910, 3911, 3972, 3971
2323, 2630, 2631, 2692, 2691, 3911, 3912, 3973, 3972
2324, 2631, 2632, 2693, 2692, 3912, 3913, 3974, 3973
2325, 2632, 2633, 2694, 2693, 3913, 3914, 3975, 3974
2326, 2633, 2634, 2695, 2694, 3914, 3915, 3976, 3975
2327, 2634, 2635, 2696, 2695, 3915, 3916, 3977, 3976
2328, 2635, 2636, 2697, 2696, 3916, 3917, 3978, 3977
2329, 2636, 2637, 2698, 2697, 3917, 3918, 3979, 3978
2330, 2637, 2638, 2699, 2698, 3918, 3919, 3980, 3979
2331, 2638, 2639, 2700, 2699, 3919, 3920, 3981, 3980
2332, 2639, 2640, 2701, 2700, 3920, 3921, 3982, 3981
2333, 2640, 2641, 2702, 2701, 3921, 3922, 3983, 3982
2334, 2641, 2642, 2703, 2702, 3922, 3923, 3984, 3983
2335, 2642, 2643, 2704, 2703, 3923, 3924, 3985, 3984
2336, 2643, 2644, 2705, 2704, 3924, 3925, 3986, 3985
2337, 2644, 2645, 2706, 2705, 3925, 3926, 3987, 3986
2338, 2645, 2646, 2707, 2706, 3926, 3927, 3988, 3987
2339, 2646, 2647, 2708, 2707, 3927, 3928, 3989, 3988
2340, 2647, 2648, 2709, 2708, 3928, 3929, 3990, 3989
2341, 2648, 2649, 2710, 2709, 3929, 3930, 3991, 3990
2342, 2649, 2650, 2711, 2710, 3930, 3931, 3992, 3991
2343, 2650, 2651, 2712, 2711, 3931, 3932, 3993, 3992
2344, 2651, 2652, 2713, 2712, 3932, 3933, 3994, 3993
2345, 2652, 2653, 2714, 2713, 3933, 3934, 3995, 3994
2346, 2653, 2654, 2715, 2714, 3934, 3935, 3996, 3995
2347, 2654, 2655, 2716, 2715, 3935, 3936, 3997, 3996
2348, 2655, 2656, 2717, 2716, 3936, 3937, 3998, 3997
2349, 2656, 2657, 2718, 2717, 3937, 3938, 3999, 3998
2350, 2657, 2658, 2719, 2718, 3938, 3939, 4000, 3999
2351, 2658, 2659, 2720, 2719, 3939, 3940, 4001, 4000
2352, 2659, 2660, 2721, 2720, 3940, 3941, 4002, 4001
2353, 2660, 2661, 2722, 2721, 3941, 3942, 4003, 4002
2354, 2661, 2662, 2723, 2722, 3942, 3943, 4004, 4003
2355, 2662, 2663, 2724, 2723, 3943, 3944, 4005, 4004
2356, 2663, 2664, 2725, 2724, 3944, 3945, 4006, 4005
2357, 2664, 2665, 2726, 2725, 3945, 3946, 4007, 4006
2358, 2665, 2666, 2727, 2726, 3946, 3947, 4008, 4007
2359, 2666, 2667, 2728, 2727, 3947, 3948, 4009, 4008
2360, 2667, 2668, 2729, 2728, 3948, 3949, 4010, 4009
2361, 2668, 2669, 2730, 2729, 3949, 3950, 4011, 4010
2362, 2669, 2670, 2731, 2730, 3950, 3951, 4012, 4011
2363, 2670, 2671, 2732, 2731, 3951, 3952, 4013, 4012
2364, 2671, 2672, 2733, 2732, 3952, 3953, 4014, 4013
2365, 2672, 2673, 2734, 2733, 3953, 3954, 4015, 4014
2366, 2673, 2674, 2735, 2734, 3954, 3955, 4016, 4015
2367, 2674, 2675, 2736, 2735, 3955, 3956, 4017, 4016
2368, 2675, 2676, 2737, 2736, 3956, 3957, 4018, 4017
2369, 2676, 2677, 2738, 2737, 3957, 3958, 4019, 4018
2370, 2677, 2678, 2739, 2738, 3958, 3959, 4020, 4019
2371, 2678, 2679, 2740, 2739, 3959, 3960, 4021, 4020
2372, 2679, 2680, 2741, 2740, 3960, 3961, 4022, 4021
2373, 2680, 2681, 2742, 2741, 3961, 3962, 4023, 4022
2374, 2681, 2682, 2743, 2742, 3962, 3963, 4024, 4023
2375, 2682, 2683, 2744, 2743, 3963, 3964, 4025, 4024
2376, 2683, 2684, 2745, 2744, 3964, 3965, 4026, 4025
2377, 2685, 2686, 2747, 2746, 3966, 3967, 4028, 4027
2378, 2686, 2687, 2748, 2747, 3967, 3968, 4029, 4028
2379, 2687, 2688, 2749, 2748, 3968, 3969, 4030, 4029
2380, 2688, 2689, 2750, 2749, 3969, 3970, 4031, 4030
2381, 2689, 2690, 2751, 2750, 3970, 3971, 4032, 4031
2382, 2690, 2691, 2752, 2751, 3971, 3972, 4033, 4032
2383, 2691, 2692, 2753, 2752, 3972, 3973, 4034, 4033
2384, 2692, 2693, 2754, 2753, 3973, 3974, 4035, 4034
2385, 2693, 2694, 2755, 2754, 3974, 3975, 4036, 4035
2386, 2694, 2695, 2756, 2755, 3975, 3976, 4037, 4036
2387, 2695, 2696, 2757, 2756, 3976, 3977, 4038, 4037
2388, 2696, 2697, 2758, 2757, 3977, 3978, 4039, 4038
2389, 2697, 2698, 2759, 2758, 3978, 3979, 4040, 4039
2390, 2698, 2699, 2760, 2759, 3979, 3980, 4041, 4040
2391, 2699, 2700, 2761, 2760, 3980, 3981, 4042, 4041
2392, 2700, 2701, 2762, 2761, 3981, 3982, 4043, 4042
2393, 2701, 2702, 2763, 2762, 3982, 3983, 4044, 4043
2394, 2702, 2703, 2764, 2763, 3983, 3984, 4045, 4044
2395, 2703, 2704, 2765, 2764, 3984, 3985, 4046, 4045
2396, 2704, 2705, 2766, 2765, 3985, 3986, 4047, 4046
2397, 2705, 2706, 2767, 2766, 3986, 3987, 4048, 4047
2398, 2706, 2707, 2768, 2767, 3987, 3988, 4049, 4048
2399, 2707, 2708, 2769, 2768, 3988, 3989, 4050, 4049
2400, 2708, 2709, 2770, 2769, 3989, 3990, 4051, 4050
2401, 2709, 2710, 2771, 2770, 3990, 3991, 4052, 4051
2402, 2710, 2711, 2772, 2771, 3991, 3992, 4053, 4052
2403, 2711, 2712, 2773, 2772, 3992, 3993, 4054, 4053
2404, 2712, 2713, 2774, 2773, 3993, 3994, 4055, 4054
2405, 2713, 2714, 2775, 2774, 3994, 3995, 4056, 4055
2406, 2714, 2715, 2776, 2775, 3995, 3996, 4057, 4056
2407, 2715, 2716, 2777, 2776, 3996, 3997, 4058, 4057
2408, 2716, 2717, 2778, 2777, 3997, 3998, 4059, 4058
2409, 2717, 2718, 2779, 2778, 3998, 3999, 4060, 4059
2410, 2718, 2719, 2780, 2779, 3999, 4000, 4061, 4060
2411, 2719, 2720, 2781, 2780, 4000, 4001, 4062, 4061
2412, 2720, 2721, 2782, 2781, 4001, 4002, 4063, 4062
2413, 2721, 2722, 2783, 2782, 4002, 4003, 4064, 4063
2414, 2722, 2723, 2784, 2783, 4003, 4004, 4065, 4064
2415, 2723, 2724, 2785, 2784, 4004, 4005, 4066, 4065
2416, 2724, 2725, 2786, 2785, 4005, 4006, 4067, 4066
2417, 2725, 2726, 2787, 2786, 4006, 4007, 4068, 4067
2418, 2726, 2727, 2788, 2787, 4007, 4008, 4069, 4068
2419, 2727, 2728, 2789, 2788, 4008, 4009, 4070, 4069
2420, 2728, 2729, 2790, 2789, 4009, 4010, 4071, 4070
2421, 2729, 2730, 2791, 2790, 4010, 4011, 4072, 4071
2422, 2730, 2731, 2792, 2791, 4011, 4012, 4073, 4072
2423, 2731, 2732, 2793, 2792, 4012, 4013, 4074, 4073
2424, 2732, 2733, 2794, 2793, 4013, 4014, 4075, 4074
2425, 2733, 2734, 2795, 2794, 4014, 4015, 4076, 4075
2426, 2734, 2735, 2796, 2795, 4015, 4016, 4077, 4076
2427, 2735, 2736, 2797, 2796, 4016, 4017, 4078, 4077
2428, 2736, 2737, 2798, 2797, 4017, 4018, 4079, 4078
2429, 2737, 2738, 2799, 2798, 4018, 4019, 4080, 4079
2430, 2738, 2739, 2800, 2799, 4019, 4020, 4081, 4080
2431, 2739, 2740, 2801, 2800, 4020, 4021, 4082, 4081
2432, 2740, 2741, 2802, 2801, 4021, 4022, 4083, 4082
2433, 2741, 2742, 2803, 2802, 4022, 4023, 4084, 4083
2434, 2742, 2743, 2804, 2803, 4023, 4024, 4085, 4084
2435, 2743, 2744, 2805, 2804, 4024, 4025, 4086, 4085
2436, 2744, 2745, 2806, 2805, 4025, 4026, 4087, 4086
2437, 2746, 2747, 2808, 2807, 4027, 4028, 4089, 4088
2438, 2747, 2748, 2809, 2808, 4028, 4029, 4090, 4089
2439, 2748, 2749, 2810, 2809, 4029, 4030, 4091, 4090
2440, 2749, 2750, 2811, 2810, 4030, 4031, 4092, 4091
2441, 2750, 2751, 2812, 2811, 4031, 4032, 4093, 4092
2442, 2751, 2752, 2813, 2812, 4032, 4033, 4094, 4093
2443, 2752, 2753, 2814, 2813, 4033, 4034, 4095, 4094
2444, 2753, 2754, 2815, 2814, 4034, 4035, 4096, 4095
2445, 2754, 2755, 2816, 2815, 4035, 4036, 4097, 4096
2446, 2755, 2756, 2817, 2816, 4036, 4037, 4098, 4097
2447, 2756, 2757, 2818, 2817, 4037, 4038, 4099, 4098
2448, 2757, 2758, 2819, 2818, 4038, 4039, 4100, 4099
2449, 2758, 2759, 2820, 2819, 4039, 4040, 4101, 4100
2450, 2759, 2760, 2821, 2820, 4040, 4041, 4102, 4101
2451, 2760, 2761, 2822, 2821, 4041, 4042, 4103, 4102
2452, 2761, 2762, 2823, 2822, 4042, 4043, 4104, 4103
2453, 2762, 2763, 2824, 2823, 4043, 4044, 4105, 4104
2454, 2763, 2764, 2825, 2824, 4044, 4045, 4106, 4105
2455, 2764, 2765, 2826, 2825, 4045, 4046, 4107, 4106
2456, 2765, 2766, 2827, 2826, 4046, 4047, 4108, 4107
2457, 2766, 2767, 2828, 2827, 4047, 4048, 4109, 4108
2458, 2767, 2768, 2829, 2828, 4048, 4049, 4110, 4109
2459, 2768, 2769, 2830, 2829, 4049, 4050, 4111, 4110
2460, 2769, 2770, 2831, 2830, 4050, 4051, 4112, 4111
2461, 2770, 2771, 2832, 2831, 4051, 4052, 4113, 4112
2462, 2771, 2772, 2833, 2832, 4052, 4053, 4114, 4113
2463, 2772, 2773, 2834, 2833, 4053, 4054, 4115, 4114
2464, 2773, 2774, 2835, 2834, 4054, 4055, 4116, 4115
2465, 2774, 2775, 2836, 2835, 4055, 4056, 4117, 4116
2466, 2775, 2776, 2837, 2836, 4056, 4057, 4118, 4117
2467, 2776, 2777, 2838, 2837, 4057, 4058, 4119, 4118
2468, 2777, 2778, 2839, 2838, 4058, 4059, 4120, 4119
2469, 2778, 2779, 2840, 2839, 4059, 4060, 4121, 4120
2470, 2779, 2780, 2841, 2840, 4060, 4061, 4122, 4121
2471, 2780, 2781, 2842, 2841, 4061, 4062, 4123, 4122
2472, 2781, 2782, 2843, 2842, 4062, 4063, 4124, 4123
2473, 2782, 2783, 2844, 2843, 4063, 4064, 4125, 4124
2474, 2783, 2784, 2845, 2844, 4064, 4065, 4126, 4125
2475, 2784, 2785, 2846, 2845, 4065, 4066, 4127, 4126
2476, 2785, 2786, 2847, 2846, 4066, 4067, 4128, 4127
2477, 2786, 2787, 2848, 2847, 4067, 4068, 4129, 4128
2478, 2787, 2788, 2849, 2848, 4068, 4069, 4130, 4129
2479, 2788, 2789, 2850, 2849, 4069, 4070, 4131, 4130
2480, 2789, 2790, 2851, 2850, 4070, 4071, 4132, 4131
2481, 2790, 2791, 2852, 2851, 4071, 4072, 4133, 4132
2482, 2791, 2792, 2853, 2852, 4072, 4073, 4134, 4133
2483, 2792, 2793, 2854, 2853, 4073, 4074, 4135, 4134
2484, 2793, 2794, 2855, 2854, 4074, 4075, 4136, 4135
2485, 2794, 2795, 2856, 2855, 4075, 4076, 4137, 4136
2486, 2795, 2796, 2857, 2856, 4076, 4077, 4138, 4137
2487, 2796, 2797, 2858, 2857, 4077, 4078, 4139, 4138
2488, 2797, 2798, 2859, 2858, 4078, 4079, 4140, 4139
2489, 2798, 2799, 2860, 2859, 4079, 4080, 4141, 4140
2490, 2799, 2800, 2861, 2860, 4080, 4081, 4142, 4141
2491, 2800, 2801, 2862, 2861, 4081, 4082, 4143, 4142
2492, 2801, 2802, 2863, 2862, 4082, 4083, 4144, 4143
2493, 2802, 2803, 2864, 2863, 4083, 4084, 4145, 4144
2494, 2803, 2804, 2865, 2864, 4084, 4085, 4146, 4145
2495, 2804, 2805, 2866, 2865, 4085, 4086, 4147, 4146
2496, 2805, 2806, 2867, 2866, 4086, 4087, 4148, 4147
2497, 2807, 2808, 2869, 2868, 4088, 4089, 4150, 4149
2498, 2808, 2809, 2870, 2869, 4089, 4090, 4151, 4150
2499, 2809, 2810, 2871, 2870, 4090, 4091, 4152, 4151
2500, 2810, 2811, 2872, 2871, 4091, 4092, 4153, 4152
2501, 2811, 2812, 2873, 2872, 4092, 4093, 4154, 4153
2502, 2812, 2813, 2874, 2873, 4093, 4094, 4155, 4154
2503, 2813, 2814, 2875, 2874, 4094, 4095, 4156, 4155
2504, 2814, 2815, 2876, 2875, 4095, 4096, 4157, 4156
2505, 2815, 2816, 2877, 2876, 4096, 4097, 4158, 4157
2506, 2816, 2817, 2878, 2877, 4097, 4098, 4159, 4158
2507, 2817, 2818, 2879, 2878, 4098, 4099, 4160, 4159
2508, 2818, 2819, 2880, 2879, 4099, 4100, 4161, 4160
2509, 2819, 2820, 2881, 2880, 4100, 4101, 4162, 4161
2510, 2820, 2821, 2882, 2881, 4101, 4102, 4163, 4162
2511, 2821, 2822, 2883, 2882, 4102, 4103, 4164, 4163
2512, 2822, 2823, 2884, 2883, 4103, 4104, 4165, 4164
2513, 2823, 2824, 2885, 2884, 4104, 4105, 4166, 4165
2514, 2824, 2825, 2886, 2885, 4105, 4106, 4167, 4166
2515, 2825, 2826, 2887, 2886, 4106, 4107, 4168, 4167
2516, 2826, 2827, 2888, 2887, 4107, 4108, 4169, 4168
2517, 2827, 2828, 2889, 2888, 4108, 4109, 4170, 4169
2518, 2828, 2829, 2890, 2889, 4109, 4110, 4171, 4170
2519, 2829, 2830, 2891, 2890, 4110, 4111, 4172, 4171
2520, 2830, 2831, 2892, 2891, 4111, 4112, 4173, 4172
2521, 2831, 2832, 2893, 2892, 4112, 4113, 4174, 4173
2522, 2832, 2833, 2894, 2893, 4113, 4114, 4175, 4174
2523, 2833, 2834, 2895, 2894, 4114, 4115, 4176, 4175
2524, 2834, 2835, 2896, 2895, 4115, 4116, 4177, 4176
2525, 2835, 2836, 2897, 2896, 4116, 4117, 4178, 4177
2526, 2836, 2837, 2898, 2897, 4117, 4118, 4179, 4178
2527, 2837, 2838, 2899, 2898, 4118, 4119, 4180, 4179
2528, 2838, 2839, 2900, 2899, 4119, 4120, 4181, 4180
2529, 2839, 2840, 2901, 2900, 4120, 4121, 4182, 4181
2530, 2840, 2841, 2902, 2901, 4121, 4122, 4183, 4182
2531, 2841, 2842, 2903, 2902, 4122, 4123, 4184, 4183
2532, 2842, 2843, 2904, 2903, 4123, 4124, 4185, 4184
2533, 2843, 2844, 2905, 2904, 4124, 4125, 4186, 4185
2534, 2844, 2845, 2906, 2905, 4125, 4126, 4187, 4186
2535, 2845, 2846, 2907, 2906, 4126, 4127, 4188, 4187
2536, 2846, 2847, 2908, 2907, 4127, 4128, 4189, 4188
2537, 2847, 2848, 2909, 2908, 4128, 4129, 4190, 4189
2538, 2848, 2849, 2910, 2909, 4129, 4130, 4191, 4190
2539, 2849, 2850, 2911, 2910, 4130, 4131, 4192, 4191
2540, 2850, 2851, 2912, 2911, 4131, 4132, 4193, 4192
2541, 2851, 2852, 2913, 2912, 4132, 4133, 4194, 4193
2542, 2852, 2853, 2914, 2913, 4133, 4134, 4195, 4194
2543, 2853, 2854, 2915, 2914, 4134, 4135, 4196, 4195
2544, 2854, 2855, 2916, 2915, 4135, 4136, 4197, 4196
2545, 2855, 2856, 2917, 2916, 4136, 4137, 4198, 4197
2546, 2856, 2857, 2918, 2917, 4137, 4138, 4199, 4198
2547, 2857, 2858, 2919, 2918, 4138, 4139, 4200, 4199
2548, 2858, 2859, 2920, 2919, 4139, 4140, 4201, 4200
2549, 2859, 2860, 2921, 2920, 4140, 4141, 4202, 4201
2550, 2860, 2861, 2922, 2921, 4141, 4142, 4203, 4202
2551, 2861, 2862, 2923, 2922, 4142, 4143, 4204, 4203
2552, 2862, 2863, 2924, 2923, 4143, 4144, 4205, 4204
2553, 2863, 2864, 2925, 2924, 4144, 4145, 4206, 4205
2554, 2864, 2865, 2926, 2925, 4145, 4146, 4207, 4206
2555, 2865, 2866, 2927, 2926, 4146, 4147, 4208, 4207
2556, 2866, 2867, 2928, 2927, 4147, 4148, 4209, 4208
2557, 2868, 2869, 2930, 2929, 4149, 4150, 4211, 4210
2558, 2869, 2870, 2931, 2930, 4150, 4151, 4212, 4211
2559, 2870, 2871, 2932, 2931, 4151, 4152, 4213, 4212
2560, 2871, 2872, 2933, 2932, 4152, 4153, 4214, 4213
2561, 2872, 2873, 2934, 2933, 4153, 4154, 4215, 4214
2562, 2873, 2874, 2935, 2934, 4154, 4155, 4216, 4215
2563, 2874, 2875, 2936, 2935, 4155, 4156, 4217, 4216
2564, 2875, 2876, 2937, 2936, 4156, 4157, 4218, 4217
2565, 2876, 2877, 2938, 2937, 4157, 4158, 4219, 4218
2566, 2877, 2878, 2939, 2938, 4158, 4159, 4220, 4219
2567, 2878, 2879, 2940, 2939, 4159, 4160, 4221, 4220
2568, 2879, 2880, 2941, 2940, 4160, 4161, 4222, 4221
2569, 2880, 2881, 2942, 2941, 4161, 4162, 4223, 4222
2570, 2881, 2882, 2943, 2942, 4162, 4163, 4224, 4223
2571, 2882, 2883, 2944, 2943, 4163, 4164, 4225, 4224
2572, 2883, 2884, 2945, 2944, 4164, 4165, 4226, 4225
2573, 2884, 2885, 2946, 2945, 4165, 4166, 4227, 4226
2574, 2885, 2886, 2947, 2946, 4166, 4167, 4228, 4227
2575, 2886, 2887, 2948, 2947, 4167, 4168, 4229, 4228
2576, 2887, 2888, 2949, 2948, 4168, 4169, 4230, 4229
2577, 2888, 2889, 2950, 2949, 4169, 4170, 4231, 4230
2578, 2889, 2890, 2951, 2950, 4170, 4171, 4232, 4231
2579, 2890, 2891, 2952, 2951, 4171, 4172, 4233, 4232
2580, 2891, 2892, 2953, 2952, 4172, 4173, 4234, 4233
2581, 2892, 2893, 2954, 2953, 4173, 4174, 4235, 4234
2582, 2893, 2894, 2955, 2954, 4174, 4175, 4236, 4235
2583, 2894, 2895, 2956, 2955, 4175, 4176, 4237, 4236
2584, 2895, 2896, 2957, 2956, 4176, 4177, 4238, 4237
2585, 2896, 2897, 2958, 2957, 4177, 4178, 4239, 4238
2586, 2897, 2898, 2959, 2958, 4178, 4179, 4240, 4239
2587, 2898, 2899, 2960, 2959, 4179, 4180, 4241, 4240
2588, 2899, 2900, 2961, 2960, 4180, 4181, 4242, 4241
2589, 2900, 2901, 2962, 2961, 4181, 4182, 4243, 4242
2590, 2901, 2902, 2963, 2962, 4182, 4183, 4244, 4243
2591, 2902, 2903, 2964, 2963, 4183, 4184, 4245, 4244
2592, 2903, 2904, 2965, 2964, 4184, 4185, 4246, 4245
2593, 2904, 2905, 2966, 2965, 4185, 4186, 4247, 4246
2594, 2905, 2906, 2967, 2966, 4186, 4187, 4248, 4247
2595, 2906, 2907, 2968, 2967, 4187, 4188, 4249, 4248
2596, 2907, 2908, 2969, 2968, 4188, 4189, 4250, 4249
2597, 2908, 2909, 2970, 2969, 4189, 4190, 4251, 4250
2598, 2909, 2910, 2971, 2970, 4190, 4191, 4252, 4251
2599, 2910, 2911, 2972, 2971, 4191, 4192, 4253, 4252
2600, 2911, 2912, 2973, 2972, 4192, 4193, 4254, 4253
2601, 2912, 2913, 2974, 2973, 4193, 4194, 4255, 4254
2602, 2913, 2914, 2975, 2974, 4194, 4195, 4256, 4255
2603, 2914, 2915, 2976, 2975, 4195, 4196, 4257, 4256
2604, 2915, 2916, 2977, 2976, 4196, 4197, 4258, 4257
2605, 2916, 2917, 2978, 2977, 4197, 4198, 4259, 4258
2606, 2917, 2918, 2979, 2978, 4198, 4199, 4260, 4259
2607, 2918, 2919, 2980, 2979, 4199, 4200, 4261, 4260
2608, 2919, 2920, 2981, 2980, 4200, 4201, 4262, 4261
2609, 2920, 2921, 2982, 2981, 4201, 4202, 4263, 4262
2610, 2921, 2922, 2983, 2982, 4202, 4203, 4264, 4263
2611, 2922, 2923, 2984, 2983, 4203, 4204, 4265, 4264
2612, 2923, 2924, 2985, 2984, 4204, 4205, 4266, 4265
2613, 2924, 2925, 2986, 2985, 4205, 4206, 4267, 4266
2614, 2925, 2926, 2987, 2986, 4206, 4207, 4268, 4267
2615, 2926, 2927, 2988, 2987, 4207, 4208, 4269, 4268
2616, 2927, 2928, 2989, 2988, 4208, 4209, 4270, 4269
2617, 2929, 2930, 2991, 2990, 4210, 4211, 4272, 4271
2618, 2930, 2931, 2992, 2991, 4211, 4212, 4273, 4272
2619, 2931, 2932, 2993, 2992, 4212, 4213, 4274, 4273
2620, 2932, 2933, 2994, 2993, 4213, 4214, 4275, 4274
2621, 2933, 2934, 2995, 2994, 4214, 4215, 4276, 4275
2622, 2934, 2935, 2996, 2995, 4215, 4216, 4277, 4276
2623, 2935, 2936, 2997, 2996, 4216, 4217, 4278, 4277
2624, 2936, 2937, 2998, 2997, 4217, 4218, 4279, 4278
2625, 2937, 2938, 2999, 2998, 4218, 4219, 4280, 4279
2626, 2938, 2939, 3000, 2999, 4219, 4220, 4281, 4280
2627, 2939, 2940, 3001, 3000, 4220, 4221, 4282, 4281
2628, 2940, 2941, 3002, 3001, 4221, 4222, 4283, 4282
2629, 2941, 2942, 3003, 3002, 4222, 4223, 4284, 4283
2630, 2942, 2943, 3004, 3003, 4223, 4224, 4285, 4284
2631, 2943, 2944, 3005, 3004, 4224, 4225, 4286, 4285
2632, 2944, 2945, 3006, 3005, 4225, 4226, 4287, 4286
2633, 2945, 2946, 3007, 3006, 4226, 4227, 4288, 4287
2634, 2946, 2947, 3008, 3007, 4227, 4228, 4289, 4288
2635, 2947, 2948, 3009, 3008, 4228, 4229, 4290, 4289
2636, 2948, 2949, 3010, 3009, 4229, 4230, 4291, 4290
2637, 2949, 2950, 3011, 3010, 4230, 4231, 4292, 4291
2638, 2950, 2951, 3012, 3011, 4231, 4232, 4293, 4292
2639, 2951, 2952, 3013, 3012, 4232, 4233, 4294, 4293
2640, 2952, 2953, 3014, 3013, 4233, 4234, 4295, 4294
2641, 2953, 2954, 3015, 3014, 4234, 4235, 4296, 4295
2642, 2954, 2955, 3016, 3015, 4235, 4236, 4297, 4296
2643, 2955, 2956, 3017, 3016, 4236, 4237, 4298, 4297
2644, 2956, 2957, 3018, 3017, 4237, 4238, 4299, 4298
2645, 2957, 2958, 3019, 3018, 4238, 4239, 4300, 4299
2646, 2958, 2959, 3020, 3019, 4239, 4240, 4301, 4300
2647, 2959, 2960, 3021, 3020, 4240, 4241, 4302, 4301
2648, 2960, 2961, 3022, 3021, 4241, 4242, 4303, 4302
2649, 2961, 2962, 3023, 3022, 4242, 4243, 4304, 4303
2650, 2962, 2963, 3024, 3023, 4243, 4244, 4305, 4304
2651, 2963, 2964, 3025, 3024, 4244, 4245, 4306, 4305
2652, 2964, 2965, 3026, 3025, 4245, 4246, 4307, 4306
2653, 2965, 2966, 3027, 3026, 4246, 4247, 4308, 4307
2654, 2966, 2967, 3028, 3027, 4247, 4248, 4309, 4308
2655, 2967, 2968, 3029, 3028, 4248, 4249, 4310, 4309
2656, 2968, 2969, 3030, 3029, 4249, 4250, 4311, 4310
2657, 2969, 2970, 3031, 3030, 4250, 4251, 4312, 4311
2658, 2970, 2971, 3032, 3031, 4251, 4252, 4313, 4312
2659, 2971, 2972, 3033, 3032, 4252, 4253, 4314, 4313
2660, 2972, 2973, 3034, 3033, 4253, 4254, 4315, 4314
2661, 2973, 2974, 3035, 3034, 4254, 4255, 4316, 4315
2662, 2974, 2975, 3036, 3035, 4255, 4256, 4317, 4316
2663, 2975, 2976, 3037, 3036, 4256, 4257, 4318, 4317
2664, 2976, 2977, 3038, 3037, 4257, 4258, 4319, 4318
2665, 2977, 2978, 3039, 3038, 4258, 4259, 4320, 4319
2666, 2978, 2979, 3040, 3039, 4259, 4260, 4321, 4320
2667, 2979, 2980, 3041, 3040, 4260, 4261, 4322, 4321
2668, 2980, 2981, 3042, 3041, 4261, 4262, 4323, 4322
2669, 2981, 2982, 3043, 3042, 4262, 4263, 4324, 4323
2670, 2982, 2983, 3044, 3043, 4263, 4264, 4325, 4324
2671, 2983, 2984, 3045, 3044, 4264, 4265, 4326, 4325
2672, 2984, 2985, 3046, 3045, 4265, 4266, 4327, 4326
2673, 2985, 2986, 3047, 3046, 4266, 4267, 4328, 4327
2674, 2986, 2987, 3048, 3047, 4267, 4268, 4329, 4328
2675, 2987, 2988, 3049, 3048, 4268, 4269, 4330, 4329
2676, 2988, 2989, 3050, 3049, 4269, 4270, 4331, 4330
2677, 2990, 2991, 3052, 3051, 4271, 4272, 4333, 4332
2678, 2991, 2992, 3053, 3052, 4272, 4273, 4334, 4333
2679, 2992, 2993, 3054, 3053, 4273, 4274, 4335, 4334
2680, 2993, 2994, 3055, 3054, 4274, 4275, 4336, 4335
2681, 2994, 2995, 3056, 3055, 4275, 4276, 4337, 4336
2682, 2995, 2996, 3057, 3056, 4276, 4277, 4338, 4337
2683, 2996, 2997, 3058, 3057, 4277, 4278, 4339, 4338
2684, 2997, 2998, 3059, 3058, 4278, 4279, 4340, 4339
2685, 2998, 2999, 3060, 3059, 4279, 4280, 4341, 4340
2686, 2999, 3000, 3061, 3060, 4280, 4281, 4342, 4341
2687, 3000, 3001, 3062, 3061, 4281, 4282, 4343, 4342
2688, 3001, 3002, 3063, 3062, 4282, 4283, 4344, 4343
2689, 3002, 3003, 3064, 3063, 4283, 4284, 4345, 4344
2690, 3003, 3004, 3065, 3064, 4284, 4285, 4346, 4345
2691, 3004, 3005, 3066, 3065, 4285, 4286, 4347, 4346
2692, 3005, 3006, 3067, 3066, 4286, 4287, 4348, 4347
2693, 3006, 3007, 3068, 3067, 4287, 4288, 4349, 4348
2694, 3007, 3008, 3069, 3068, 4288, 4289, 4350, 4349
2695, 3008, 3009, 3070, 3069, 4289, 4290, 4351, 4350
2696, 3009, 3010, 3071, 3070, 4290, 4291, 4352, 4351
2697, 3010, 3011, 3072, 3071, 4291, 4292, 4353, 4352
2698, 3011, 3012, 3073, 3072, 4292, 4293, 4354, 4353
2699, 3012, 3013, 3074, 3073, 4293, 4294, 4355, 4354
2700, 3013, 3014, 3075, 3074, 4294, 4295, 4356, 4355
2701, 3014, 3015, 3076, 3075, 4295, 4296, 4357, 4356
2702, 3015, 3016, 3077, 3076, 4296, 4297, 4358, 4357
2703, 3016, 3017, 3078, 3077, 4297, 4298, 4359, 4358
2704, 3017, 3018, 3079, 3078, 4298, 4299, 4360, 4359
2705, 3018, 3019, 3080, 3079, 4299, 4300, 4361, 4360
2706, 3019, 3020, 3081, 3080, 4300, 4301, 4362, 4361
2707, 3020, 3021, 3082, 3081, 4301, 4302, 4363, 4362
2708, 3021, 3022, 3083, 3082, 4302, 4303, 4364, 4363
2709, 3022, 3023, 3084, 3083, 4303, 4304, 4365, 4364
2710, 3023, 3024, 3085, 3084, 4304, 4305, 4366, 4365
2711, 3024, 3025, 3086, 3085, 4305, 4306, 4367, 4366
2712, 3025, 3026, 3087, 3086, 4306, 4307, 4368, 4367
2713, 3026, 3027, 3088, 3087, 4307, 4308, 4369, 4368
2714, 3027, 3028, 3089, 3088, 4308, 4309, 4370, 4369
2715, 3028, 3029, 3090, 3089, 4309, 4310, 4371, 4370
2716, 3029, 3030, 3091, 3090, 4310, 4311, 4372, 4371
2717, 3030, 3031, 3092, 3091, 4311, 4312, 4373, 4372
2718, 3031, 3032, 3093, 3092, 4312, 4313, 4374, 4373
2719, 3032, 3033, 3094, 3093, 4313, 4314, 4375, 4374
2720, 3033, 3034, 3095, 3094, 4314, 4315, 4376, 4375
2721, 3034, 3035, 3096, 3095, 4315, 4316, 4377, 4376
2722, 3035, 3036, 3097, 3096, 4316, 4317, 4378, 4377
2723, 3036, 3037, 3098, 3097, 4317, 4318, 4379, 4378
2724, 3037, 3038, 3099, 3098, 4318, 4319, 4380, 4379
2725, 3038, 3039, 3100, 3099, 4319, 4320, 4381, 4380
2726, 3039, 3040, 3101, 3100, 4320, 4321, 4382, 4381
2727, 3040, 3041, 3102, 3101, 4321, 4322, 4383, 4382
2728, 3041, 3042, 3103, 3102, 4322, 4323, 4384, 4383
2729, 3042, 3043, 3104, 3103, 4323, 4324, 4385, 4384
2730, 3043, 3044, 3105, 3104, 4324, 4325, 4386, 4385
2731, 3044, 3045, 3106, 3105, 4325, 4326, 4387, 4386
2732, 3045, 3046, 3107, 3106, 4326, 4327, 4388, 4387
2733, 3046, 3047, 3108, 3107, 4327, 4328, 4389, 4388
2734, 3047, 3048, 3109, 3108, 4328, 4329, 4390, 4389
2735, 3048, 3049, 3110, 3109, 4329, 4330, 4391, 4390
2736, 3049, 3050, 3111, 3110, 4330, 4331, 4392, 4391
2737, 3051, 3052, 3113, 3112, 4332, 4333, 4394, 4393
2738, 3052, 3053, 3114, 3113, 4333, 4334, 4395, 4394
2739, 3053, 3054, 3115, 3114, 4334, 4335, 4396, 4395
2740, 3054, 3055, 3116, 3115, 4335, 4336, 4397, 4396
2741, 3055, 3056, 3117, 3116, 4336, 4337, 4398, 4397
2742, 3056, 3057, 3118, 3117, 4337, 4338, 4399, 4398
2743, 3057, 3058, 3119, 3118, 4338, 4339, 4400, 4399
2744, 3058, 3059, 3120, 3119, 4339, 4340, 4401, 4400
2745, 3059, 3060, 3121, 3120, 4340, 4341, 4402, 4401
2746, 3060, 3061, 3122, 3121, 4341, 4342, 4403, 4402
2747, 3061, 3062, 3123, 3122, 4342, 4343, 4404, 4403
2748, 3062, 3063, 3124, 3123, 4343, 4344, 4405, 4404
2749, 3063, 3064, 3125, 3124, 4344, 4345, 4406, 4405
2750, 3064, 3065, 3126, 3125, 4345, 4346, 4407, 4406
2751, 3065, 3066, 3127, 3126, 4346, 4347, 4408, 4407
2752, 3066, 3067, 3128, 3127, 4347, 4348, 4409, 4408
2753, 3067, 3068, 3129, 3128, 4348, 4349, 4410, 4409
2754, 3068, 3069, 3130, 3129, 4349, 4350, 4411, 4410
2755, 3069, 3070, 3131, 3130, 4350, 4351, 4412, 4411
2756, 3070, 3071, 3132, 3131, 4351, 4352, 4413, 4412
2757, 3071, 3072, 3133, 3132, 4352, 4353, 4414, 4413
2758, 3072, 3073, 3134, 3133, 4353, 4354, 4415, 4414
2759, 3073, 3074, 3135, 3134, 4354, 4355, 4416, 4415
2760, 3074, 3075, 3136, 3135, 4355, 4356, 4417, 4416
2761, 3075, 3076, 3137, 3136, 4356, 4357, 4418, 4417
2762, 3076, 3077, 3138, 3137, 4357, 4358, 4419, 4418
2763, 3077, 3078, 3139, 3138, 4358, 4359, 4420, 4419
2764, 3078, 3079, 3140, 3139, 4359, 4360, 4421, 4420
2765, 3079, 3080, 3141, 3140, 4360, 4361, 4422, 4421
2766, 3080, 3081, 3142, 3141, 4361, 4362, 4423, 4422
2767, 3081, 3082, 3143, 3142, 4362, 4363, 4424, 4423
2768, 3082, 3083, 3144, 3143, 4363, 4364, 4425, 4424
2769, 3083, 3084, 3145, 3144, 4364, 4365, 4426, 4425
2770, 3084, 3085, 3146, 3145, 4365, 4366, 4427, 4426
2771, 3085, 3086, 3147, 3146, 4366, 4367, 4428, 4427
2772, 3086, 3087, 3148, 3147, 4367, 4368, 4429, 4428
2773, 3087, 3088, 3149, 3148, 4368, 4369, 4430, 4429
2774, 3088, 3089, 3150, 3149, 4369, 4370, 4431, 4430
2775, 3089, 3090, 3151, 3150, 4370, 4371, 4432, 4431
2776, 3090, 3091, 3152, 3151, 4371, 4372, 4433, 4432
2777, 3091, 3092, 3153, 3152, 4372, 4373, 4434, 4433
2778, 3092, 3093, 3154, 3153, 4373, 4374, 4435, 4434
2779, 3093, 3094, 3155, 3154, 4374, 4375, 4436, 4435
2780, 3094, 3095, 3156, 3155, 4375, 4376, 4437, 4436
2781, 3095, 3096, 3157, 3156, 4376, 4377, 4438, 4437
2782, 3096, 3097, 3158, 3157, 4377, 4378, 4439, 4438
2783, 3097, 3098, 3159, 3158, 4378, 4379, 4440, 4439
2784, 3098, 3099, 3160, 3159, 4379, 4380, 4441, 4440
2785, 3099, 3100, 3161, 3160, 4380, 4381, 4442, 4441
2786, 3100, 3101, 3162, 3161, 4381, 4382, 4443, 4442
2787, 3101, 3102, 3163, 3162, 4382, 4383, 4444, 4443
2788, 3102, 3103, 3164, 3163, 4383, 4384, 4445, 4444
2789, 3103, 3104, 3165, 3164, 4384, 4385, 4446, 4445
2790, 3104, 3105, 3166, 3165, 4385, 4386, 4447, 4446
2791, 3105, 3106, 3167, 3166, 4386, 4387, 4448, 4447
2792, 3106, 3107, 3168, 3167, 4387, 4388, 4449, 4448
2793, 3107, 3108, 3169, 3168, 4388, 4389, 4450, 4449
2794, 3108, 3109, 3170, 3169, 4389, 4390, 4451, 4450
2795, 3109, 3110, 3171, 3170, 4390, 4391, 4452, 4451
2796, 3110, 3111, 3172, 3171, 4391, 4392, 4453, 4452
2797, 3112, 3113, 3174, 3173, 4393, 4394, 4455, 4454
2798, 3113, 3114, 3175, 3174, 4394, 4395, 4456, 4455
2799, 3114, 3115, 3176, 3175, 4395, 4396, 4457, 4456
2800, 3115, 3116, 3177, 3176, 4396, 4397, 4458, 4457
2801, 3116, 3117, 3178, 3177, 4397, 4398, 4459, 4458
2802, 3117, 3118, 3179, 3178, 4398, 4399, 4460, 4459
2803, 3118, 3119, 3180, 3179, 4399, 4400, 4461, 4460
2804, 3119, 3120, 3181, 3180, 4400, 4401, 4462, 4461
2805, 3120, 3121, 3182, 3181, 4401, 4402, 4463, 4462
2806, 3121, 3122, 3183, 3182, 4402, 4403, 4464, 4463
2807, 3122, 3123, 3184, 3183, 4403, 4404, 4465, 4464
2808, 3123, 3124, 3185, 3184, 4404, 4405, 4466, 4465
2809, 3124, 3125, 3186, 3185, 4405, 4406, 4467, 4466
2810, 3125, 3126, 3187, 3186, 4406, 4407, 4468, 4467
2811, 3126, 3127, 3188, 3187, 4407, 4408, 4469, 4468
2812, 3127, 3128, 3189, 3188, 4408, 4409, 4470, 4469
2813, 3128, 3129, 3190, 3189, 4409, 4410, 4471, 4470
2814, 3129, 3130, 3191, 3190, 4410, 4411, 4472, 4471
2815, 3130, 3131, 3192, 3191, 4411, 4412, 4473, 4472
2816, 3131, 3132, 3193, 3192, 4412, 4413, 4474, 4473
2817, 3132, 3133, 3194, 3193, 4413, 4414, 4475, 4474
2818, 3133, 3134, 3195, 3194, 4414, 4415, 4476, 4475
2819, 3134, 3135, 3196, 3195, 4415, 4416, 4477, 4476
2820, 3135, 3136, 3197, 3196, 4416, 4417, 4478, 4477
2821, 3136, 3137, 3198, 3197, 4417, 4418, 4479, 4478
2822, 3137, 3138, 3199, 3198, 4418, 4419, 4480, 4479
2823, 3138, 3139, 3200, 3199, 4419, 4420, 4481, 4480
2824, 3139, 3140, 3201, 3200, 4420, 4421, 4482, 4481
2825, 3140, 3141, 3202, 3201, 4421, 4422, 4483, 4482
2826, 3141, 3142, 3203, 3202, 4422, 4423, 4484, 4483
2827, 3142, 3143, 3204, 3203, 4423, 4424, 4485, 4484
2828, 3143, 3144, 3205, 3204, 4424, 4425, 4486, 4485
2829, 3144, 3145, 3206, 3205, 4425, 4426, 4487, 4486
2830, 3145, 3146, 3207, 3206, 4426, 4427, 4488, 4487
2831, 3146, 3147, 3208, 3207, 4427, 4428, 4489, 4488
2832, 3147, 3148, 3209, 3208, 4428, 4429, 4490, 4489
2833, 3148, 3149, 3210, 3209, 4429, 4430, 4491, 4490
2834, 3149, 3150, 3211, 3210, 4430, 4431, 4492, 4491
2835, 3150, 3151, 3212, 3211, 4431, 4432, 4493, 4492
2836, 3151, 3152, 3213, 3212, 4432, 4433, 4494, 4493
2837, 3152, 3153, 3214, 3213, 4433, 4434, 4495, 4494
2838, 3153, 3154, 3215, 3214, 4434, 4435, 4496, 4495
2839, 3154, 3155, 3216, 3215, 4435, 4436, 4497, 4496
2840, 3155, 3156, 3217, 3216, 4436, 4437, 4498, 4497
2841, 3156, 3157, 3218, 3217, 4437, 4438, 4499, 4498
2842, 3157, 3158, 3219, 3218, 4438, 4439, 4500, 4499
2843, 3158, 3159, 3220, 3219, 4439, 4440, 4501, 4500
2844, 3159, 3160, 3221, 3220, 4440, 4441, 4502, 4501
2845, 3160, 3161, 3222, 3221, 4441, 4442, 4503, 4502
2846, 3161, 3162, 3223, 3222, 4442, 4443, 4504, 4503
2847, 3162, 3163, 3224, 3223, 4443, 4444, 4505, 4504
2848, 3163, 3164, 3225, 3224, 4444, 4445, 4506, 4505
2849, 3164, 3165, 3226, 3225, 4445, 4446, 4507, 4506
2850, 3165, 3166, 3227, 3226, 4446, 4447, 4508, 4507
2851, 3166, 3167, 3228, 3227, 4447, 4448, 4509, 4508
2852, 3167, 3168, 3229, 3228, 4448, 4449, 4510, 4509
2853, 3168, 3169, 3230, 3229, 4449, 4450, 4511, 4510
2854, 3169, 3170, 3231, 3230, 4450, 4451, 4512, 4511
2855, 3170, 3171, 3232, 3231, 4451, 4452, 4513, 4512
2856, 3171, 3172, 3233, 3232, 4452, 4453, 4514, 4513
2857, 3173, 3174, 3235, 3234, 4454, 4455, 4516, 4515
2858, 3174, 3175, 3236, 3235, 4455, 4456, 4517, 4516
2859, 3175, 3176, 3237, 3236, 4456, 4457, 4518, 4517
2860, 3176, 3177, 3238, 3237, 4457, 4458, 4519, 4518
2861, 3177, 3178, 3239, 3238, 4458, 4459, 4520, 4519
2862, 3178, 3179, 3240, 3239, 4459, 4460, 4521, 4520
2863, 3179, 3180, 3241, 3240, 4460, 4461, 4522, 4521
2864, 3180, 3181, 3242, 3241, 4461, 4462, 4523, 4522
2865, 3181, 3182, 3243, 3242, 4462, 4463, 4524, 4523
2866, 3182, 3183, 3244, 3243, 4463, 4464, 4525, 4524
2867, 3183, 3184, 3245, 3244, 4464, 4465, 4526, 4525
2868, 3184, 3185, 3246, 3245, 4465, 4466, 4527, 4526
2869, 3185, 3186, 3247, 3246, 4466, 4467, 4528, 4527
2870, 3186, 3187, 3248, 3247, 4467, 4468, 4529, 4528
2871, 3187, 3188, 3249, 3248, 4468, 4469, 4530, 4529
2872, 3188, 3189, 3250, 3249, 4469, 4470, 4531, 4530
2873, 3189, 3190, 3251, 3250, 4470, 4471, 4532, 4531
2874, 3190, 3191, 3252, 3251, 4471, 4472, 4533, 4532
2875, 3191, 3192, 3253, 3252, 4472, 4473, 4534, 4533
2876, 3192, 3193, 3254, 3253, 4473, 4474, 4535, 4534
2877, 3193, 3194, 3255, 3254, 4474, 4475, 4536, 4535
2878, 3194, 3195, 3256, 3255, 4475, 4476, 4537, 4536
2879, 3195, 3196, 3257, 3256, 4476, 4477, 4538, 4537
2880, 3196, 3197, 3258, 3257, 4477, 4478, 4539, 4538
2881, 3197, 3198, 3259, 3258, 4478, 4479, 4540, 4539
2882, 3198, 3199, 3260, 3259, 4479, 4480, 4541, 4540
2883, 3199, 3200, 3261, 3260, 4480, 4481, 4542, 4541
2884, 3200, 3201, 3262, 3261, 4481, 4482, 4543, 4542
2885, 3201, 3202, 3263, 3262, 4482, 4483, 4544, 4543
2886, 3202, 3203, 3264, 3263, 4483, 4484, 4545, 4544
2887, 3203, 3204, 3265, 3264, 4484, 4485, 4546, 4545
2888, 3204, 3205, 3266, 3265, 4485, 4486, 4547, 4546
2889, 3205, 3206, 3267, 3266, 4486, 4487, 4548, 4547
2890, 3206, 3207, 3268, 3267, 4487, 4488, 4549, 4548
2891, 3207, 3208, 3269, 3268, 4488, 4489, 4550, 4549
2892, 3208, 3209, 3270, 3269, 4489, 4490, 4551, 4550
2893, 3209, 3210, 3271, 3270, 4490, 4491, 4552, 4551
2894, 3210, 3211, 3272, 3271, 4491, 4492, 4553, 4552
2895, 3211, 3212, 3273, 3272, 4492, 4493, 4554, 4553
2896, 3212, 3213, 3274, 3273, 4493, 4494, 4555, 4554
2897, 3213, 3214, 3275, 3274, 4494, 4495, 4556, 4555
2898, 3214, 3215, 3276, 3275, 4495, 4496, 4557, 4556
2899, 3215, 3216, 3277, 3276, 4496, 4497, 4558, 4557
2900, 3216, 3217, 3278, 3277, 4497, 4498, 4559, 4558
2901, 3217, 3218, 3279, 3278, 4498, 4499, 4560, 4559
2902, 3218, 3219, 3280, 3279, 4499, 4500, 4561, 4560
2903, 3219, 3220, 3281, 3280, 4500, 4501, 4562, 4561
2904, 3220, 3221, 3282, 3281, 4501, 4502, 4563, 4562
2905, 3221, 3222, 3283, 3282, 4502, 4503, 4564, 4563
2906, 3222, 3223, 3284, 3283, 4503, 4504, 4565, 4564
2907, 3223, 3224, 3285, 3284, 4504, 4505, 4566, 4565
2908, 3224, 3225, 3286, 3285, 4505, 4506, 4567, 4566
2909, 3225, 3226, 3287, 3286, 4506, 4507, 4568, 4567
2910, 3226, 3227, 3288, 3287, 4507, 4508, 4569, 4568
2911, 3227, 3228, 3289, 3288, 4508, 4509, 4570, 4569
2912, 3228, 3229, 3290, 3289, 4509, 4510, 4571, 4570
2913, 3229, 3230, 3291, 3290, 4510, 4511, 4572, 4571
2914, 3230, 3231, 3292, 3291, 4511, 4512, 4573, 4572
2915, 3231, 3232, 3293, 3292, 4512, 4513, 4574, 4573
2916, 3232, 3233, 3294, 3293, 4513, 4514, 4575, 4574
2917, 3234, 3235, 3296, 3295, 4515, 4516, 4577, 4576
2918, 3235, 3236, 3297, 3296, 4516, 4517, 4578, 4577
2919, 3236, 3237, 3298, 3297, 4517, 4518, 4579, 4578
2920, 3237, 3238, 3299, 3298, 4518, 4519, 4580, 4579
2921, 3238, 3239, 3300, 3299, 4519, 4520, 4581, 4580
2922, 3239, 3240, 3301, 3300, 4520, 4521, 4582, 4581
2923, 3240, 3241, 3302, 3301, 4521, 4522, 4583, 4582
2924, 3241, 3242, 3303, 3302, 4522, 4523, 4584, 4583
2925, 3242, 3243, 3304, 3303, 4523, 4524, 4585, 4584
2926, 3243, 3244, 3305, 3304, 4524, 4525, 4586, 4585
2927, 3244, 3245, 3306, 3305, 4525, 4526, 4587, 4586
2928, 3245, 3246, 3307, 3306, 4526, 4527, 4588, 4587
2929, 3246, 3247, 3308, 3307, 4527, 4528, 4589, 4588
2930, 3247, 3248, 3309, 3308, 4528, 4529, 4590, 4589
2931, 3248, 3249, 3310, 3309, 4529, 4530, 4591, 4590
2932, 3249, 3250, 3311, 3310, 4530, 4531, 4592, 4591
2933, 3250, 3251, 3312, 3311, 4531, 4532, 4593, 4592
2934, 3251, 3252, 3313, 3312, 4532, 4533, 4594, 4593
2935, 3252, 3253, 3314, 3313, 4533, 4534, 4595, 4594
2936, 3253, 3254, 3315, 3314, 4534, 4535, 4596, 4595
2937, 3254, 3255, 3316, 3315, 4535, 4536, 4597, 4596
2938, 3255, 3256, 3317, 3316, 4536, 4537, 4598, 4597
2939, 3256, 3257, 3318, 3317, 4537, 4538, 4599, 4598
2940, 3257, 3258, 3319, 3318, 4538, 4539, 4600, 4599
2941, 3258, 3259, 3320, 3319, 4539, 4540, 4601, 4600
2942, 3259, 3260, 3321, 3320, 4540, 4541, 4602, 4601
2943, 3260, 3261, 3322, 3321, 4541, 4542, 4603, 4602
2944, 3261, 3262, 3323, 3322, 4542, 4543, 4604, 4603
2945, 3262, 3263, 3324, 3323, 4543, 4544, 4605, 4604
2946, 3263, 3264, 3325, 3324, 4544, 4545, 4606, 4605
2947, 3264, 3265, 3326, 3325, 4545, 4546, 4607, 4606
2948, 3265, 3266, 3327, 3326, 4546, 4547, 4608, 4607
2949, 3266, 3267, 3328, 3327, 4547, 4548, 4609, 4608
2950, 3267, 3268, 3329, 3328, 4548, 4549, 4610, 4609
2951, 3268, 3269, 3330, 3329, 4549, 4550, 4611, 4610
2952, 3269, 3270, 3331, 3330, 4550, 4551, 4612, 4611
2953, 3270, 3271, 3332, 3331, 4551, 4552, 4613, 4612
2954, 3271, 3272, 3333, 3332, 4552, 4553, 4614, 4613
2955, 3272, 3273, 3334, 3333, 4553, 4554, 4615, 4614
2956, 3273, 3274, 3335, 3334, 4554, 4555, 4616, 4615
2957, 3274, 3275, 3336, 3335, 4555, 4556, 4617, 4616
2958, 3275, 3276, 3337, 3336, 4556, 4557, 4618, 4617
2959, 3276, 3277, 3338, 3337, 4557, 4558, 4619, 4618
2960, 3277, 3278, 3339, 3338, 4558, 4559, 4620, 4619
2961, 3278, 3279, 3340, 3339, 4559, 4560, 4621, 4620
2962, 3279, 3280, 3341, 3340, 4560, 4561, 4622, 4621
2963, 3280, 3281, 3342, 3341, 4561, 4562, 4623, 4622
2964, 3281, 3282, 3343, 3342, 4562, 4563, 4624, 4623
2965, 3282, 3283, 3344, 3343, 4563, 4564, 4625, 4624
2966, 3283, 3284, 3345, 3344, 4564, 4565, 4626, 4625
2967, 3284, 3285, 3346, 3345, 4565, 4566, 4627, 4626
2968, 3285, 3286, 3347, 3346, 4566, 4567, 4628, 4627
2969, 3286, 3287, 3348, 3347, 4567, 4568, 4629, 4628
2970, 3287, 3288, 3349, 3348, 4568, 4569, 4630, 4629
2971, 3288, 3289, 3350, 3349, 4569, 4570, 4631, 4630
2972, 3289, 3290, 3351, 3350, 4570, 4571, 4632, 4631
2973, 3290, 3291, 3352, 3351, 4571, 4572, 4633, 4632
2974, 3291, 3292, 3353, 3352, 4572, 4573, 4634, 4633
2975, 3292, 3293, 3354, 3353, 4573, 4574, 4635, 4634
2976, 3293, 3294, 3355, 3354, 4574, 4575, 4636, 4635
2977, 3295, 3296, 3357, 3356, 4576, 4577, 4638, 4637
2978, 3296, 3297, 3358, 3357, 4577, 4578, 4639, 4638
2979, 3297, 3298, 3359, 3358, 4578, 4579, 4640, 4639
2980, 3298, 3299, 3360, 3359, 4579, 4580, 4641, 4640
2981, 3299, 3300, 3361, 3360, 4580, 4581, 4642, 4641
2982, 3300, 3301, 3362, 3361, 4581, 4582, 4643, 4642
2983, 3301, 3302, 3363, 3362, 4582, 4583, 4644, 4643
2984, 3302, 3303, 3364, 3363, 4583, 4584, 4645, 4644
2985, 3303, 3304, 3365, 3364, 4584, 4585, 4646, 4645
2986, 3304, 3305, 3366, 3365, 4585, 4586, 4647, 4646
2987, 3305, 3306, 3367, 3366, 4586, 4587, 4648, 4647
2988, 3306, 3307, 3368, 3367, 4587, 4588, 4649, 4648
2989, 3307, 3308, 3369, 3368, 4588, 4589, 4650, 4649
2990, 3308, 3309, 3370, 3369, 4589, 4590, 4651, 4650
2991, 3309, 3310, 3371, 3370, 4590, 4591, 4652, 4651
2992, 3310, 3311, 3372, 3371, 4591, 4592, 4653, 4652
2993, 3311, 3312, 3373, 3372, 4592, 4593, 4654, 4653
2994, 3312, 3313, 3374, 3373, 4593, 4594, 4655, 4654
2995, 3313, 3314, 3375, 3374, 4594, 4595, 4656, 4655
2996, 3314, 3315, 3376, 3375, 4595, 4596, 4657, 4656
2997, 3315, 3316, 3377, 3376, 4596, 4597, 4658, 4657
2998, 3316, 3317, 3378, 3377, 4597, 4598, 4659, 4658
2999, 3317, 3318, 3379, 3378, 4598, 4599, 4660, 4659
3000, 3318, 3319, 3380, 3379, 4599, 4600, 4661, 4660
3001, 3319, 3320, 3381, 3380, 4600, 4601, 4662, 4661
3002, 3320, 3321, 3382, 3381, 4601, 4602, 4663, 4662
3003, 3321, 3322, 3383, 3382, 4602, 4603, 4664, 4663
3004, 3322, 3323, 3384, 3383, 4603, 4604, 4665, 4664
3005, 3323, 3324, 3385, 3384, 4604, 4605, 4666, 4665
3006, 3324, 3325, 3386, 3385, 4605, 4606, 4667, 4666
3007, 3325, 3326, 3387, 3386, 4606, 4607, 4668, 4667
3008, 3326, 3327, 3388, 3387, 4607, 4608, 4669, 4668
3009, 3327, 3328, 3389, 3388, 4608, 4609, 4670, 4669
3010, 3328, 3329, 3390, 3389, 4609, 4610, 4671, 4670
3011, 3329, 3330, 3391, 3390, 4610, 4611, 4672, 4671
3012, 3330, 3331, 3392, 3391, 4611, 4612, 4673, 4672
3013, 3331, 3332, 3393, 3392, 4612, 4613, 4674, 4673
3014, 3332, 3333, 3394, 3393, 4613, 4614, 4675, 4674
3015, 3333, 3334, 3395, 3394, 4614, 4615, 4676, 4675
3016, 3334, 3335, 3396, 3395, 4615, 4616, 4677, 4676
3017, 3335, 3336, 3397, 3396, 4616, 4617, 4678, 4677
3018, 3336, 3337, 3398, 3397, 4617, 4618, 4679, 4678
3019, 3337, 3338, 3399, 3398, 4618, 4619, 4680, 4679
3020, 3338, 3339, 3400, 3399, 4619, 4620, 4681, 4680
3021, 3339, 3340, 3401, 3400, 4620, 4621, 4682, 4681
3022, 3340, 3341, 3402, 3401, 4621, 4622, 4683, 4682
3023, 3341, 3342, 3403, 3402, 4622, 4623, 4684, 4683
3024, 3342, 3343, 3404, 3403, 4623, 4624, 4685, 4684
3025, 3343, 3344, 3405, 3404, 4624, 4625, 4686, 4685
3026, 3344, 3345, 3406, 3405, 4625, 4626, 4687, 4686
3027, 3345, 3346, 3407, 3406, 4626, 4627, 4688, 4687
3028, 3346, 3347, 3408, 3407, 4627, 4628, 4689, 4688
3029, 3347, 3348, 3409, 3408, 4628, 4629, 4690, 4689
3030, 3348, 3349, 3410, 3409, 4629, 4630, 4691, 4690
3031, 3349, 3350, 3411, 3410, 4630, 4631, 4692, 4691
3032, 3350, 3351, 3412, 3411, 4631, 4632, 4693, 4692
3033, 3351, 3352, 3413, 3412, 4632, 4633, 4694, 4693
3034, 3352, 3353, 3414, 3413, 4633, 4634, 4695, 4694
3035, 3353, 3354, 3415, 3414, 4634, 4635, 4696, 4695
3036, 3354, 3355, 3416, 3415, 4635, 4636, 4697, 4696
3037, 3356, 3357, 3418, 3417, 4637, 4638, 4699, 4698
3038, 3357, 3358, 3419, 3418, 4638, 4639, 4700, 4699
3039, 3358, 3359, 3420, 3419, 4639, 4640, 4701, 4700
3040, 3359, 3360, 3421, 3420, 4640, 4641, 4702, 4701
3041, 3360, 3361, 3422, 3421, 4641, 4642, 4703, 4702
3042, 3361, 3362, 3423, 3422, 4642, 4643, 4704, 4703
3043, 3362, 3363, 3424, 3423, 4643, 4644, 4705, 4704
3044, 3363, 3364, 3425, 3424, 4644, 4645, 4706, 4705
3045, 3364, 3365, 3426, 3425, 4645, 4646, 4707, 4706
3046, 3365, 3366, 3427, 3426, 4646, 4647, 4708, 4707
3047, 3366, 3367, 3428, 3427, 4647, 4648, 4709, 4708
3048, 3367, 3368, 3429, 3428, 4648, 4649, 4710, 4709
3049, 3368, 3369, 3430, 3429, 4649, 4650, 4711, 4710
3050, 3369, 3370, 3431, 3430, 4650, 4651, 4712, 4711
3051, 3370, 3371, 3432, 3431, 4651, 4652, 4713, 4712
3052, 3371, 3372, 3433, 3432, 4652, 4653, 4714, 4713
3053, 3372, 3373, 3434, 3433, 4653, 4654, 4715, 4714
3054, 3373, 3374, 3435, 3434, 4654, 4655, 4716, 4715
3055, 3374, 3375, 3436, 3435, 4655, 4656, 4717, 4716
3056, 3375, 3376, 3437, 3436, 4656, 4657, 4718, 4717
3057, 3376, 3377, 3438, 3437, 4657, 4658, 4719, 4718
3058, 3377, 3378, 3439, 3438, 4658, 4659, 4720, 4719
3059, 3378, 3379, 3440, 3439, 4659, 4660, 4721, 4720
3060, 3379, 3380, 3441, 3440, 4660, 4661, 4722, 4721
3061, 3380, 3381, 3442, 3441, 4661, 4662, 4723, 4722
3062, 3381, 3382, 3443, 3442, 4662, 4663, 4724, 4723
3063, 3382, 3383, 3444, 3443, 4663, 4664, 4725, 4724
3064, 3383, 3384, 3445, 3444, 4664, 4665, 4726, 4725
3065, 3384, 3385, 3446, 3445, 4665, 4666, 4727, 4726
3066, 3385, 3386, 3447, 3446, 4666, 4667, 4728, 4727
3067, 3386, 3387, 3448, 3447, 4667, 4668, 4729, 4728
3068, 3387, 3388, 3449, 3448, 4668, 4669, 4730, 4729
3069, 3388, 3389, 3450, 3449, 4669, 4670, 4731, 4730
3070, 3389, 3390, 3451, 3450, 4670, 4671, 4732, 4731
3071, 3390, 3391, 3452, 3451, 4671, 4672, 4733, 4732
3072, 3391, 3392, 3453, 3452, 4672, 4673, 4734, 4733
3073, 3392, 3393, 3454, 3453, 4673, 4674, 4735, 4734
3074, 3393, 3394, 3455, 3454, 4674, 4675, 4736, 4735
3075, 3394, 3395, 3456, 3455, 4675, 4676, 4737, 4736
3076, 3395, 3396, 3457, 3456, 4676, 4677, 4738, 4737
3077, 3396, 3397, 3458, 3457, 4677, 4678, 4739, 4738
3078, 3397, 3398, 3459, 3458, 4678, 4679, 4740, 4739
3079, 3398, 3399, 3460, 3459, 4679, 4680, 4741, 4740
3080, 3399, 3400, 3461, 3460, 4680, 4681, 4742, 4741
3081, 3400, 3401, 3462, 3461, 4681, 4682, 4743, 4742
3082, 3401, 3402, 3463, 3462, 4682, 4683, 4744, 4743
3083, 3402, 3403, 3464, 3463, 4683, 4684, 4745, 4744
3084, 3403, 3404, 3465, 3464, 4684, 4685, 4746, 4745
3085, 3404, 3405, 3466, 3465, 4685, 4686, 4747, 4746
3086, 3405, 3406, 3467, 3466, 4686, 4687, 4748, 4747
3087, 3406, 3407, 3468, 3467, 4687, 4688, 4749, 4748
3088, 3407, 3408, 3469, 3468, 4688, 4689, 4750, 4749
3089, 3408, 3409, 3470, 3469, 4689, 4690, 4751, 4750
3090, 3409, 3410, 3471, 3470, 4690, 4691, 4752, 4751
3091, 3410, 3411, 3472, 3471, 4691, 4692, 4753, 4752
3092, 3411, 3412, 3473, 3472, 4692, 4693, 4754, 4753
3093, 3412, 3413, 3474, 3473, 4693, 4694, 4755, 4754
3094, 3413, 3414, 3475, 3474, 4694, 4695, 4756, 4755
3095, 3414, 3415, 3476, 3475, 4695, 4696, 4757, 4756
3096, 3415, 3416, 3477, 3476, 4696, 4697, 4758, 4757
3097, 3417, 3418, 3479, 3478, 4698, 4699, 4760, 4759
3098, 3418, 3419, 3480, 3479, 4699, 4700, 4761, 4760
3099, 3419, 3420, 3481, 3480, 4700, 4701, 4762, 4761
3100, 3420, 3421, 3482, 3481, 4701, 4702, 4763, 4762
3101, 3421, 3422, 3483, 3482, 4702, 4703, 4764, 4763
3102, 3422, 3423, 3484, 3483, 4703, 4704, 4765, 4764
3103, 3423, 3424, 3485, 3484, 4704, 4705, 4766, 4765
3104, 3424, 3425, 3486, 3485, 4705, 4706, 4767, 4766
3105, 3425, 3426, 3487, 3486, 4706, 4707, 4768, 4767
3106, 3426, 3427, 3488, 3487, 4707, 4708, 4769, 4768
3107, 3427, 3428, 3489, 3488, 4708, 4709, 4770, 4769
3108, 3428, 3429, 3490, 3489, 4709, 4710, 4771, 4770
3109, 3429, 3430, 3491, 3490, 4710, 4711, 4772, 4771
3110, 3430, 3431, 3492, 3491, 4711, 4712, 4773, 4772
3111, 3431, 3432, 3493, 3492, 4712, 4713, 4774, 4773
3112, 3432, 3433, 3494, 3493, 4713, 4714, 4775, 4774
3113, 3433, 3434, 3495, 3494, 4714, 4715, 4776, 4775
3114, 3434, 3435, 3496, 3495, 4715, 4716, 4777, 4776
3115, 3435, 3436, 3497, 3496, 4716, 4717, 4778, 4777
3116, 3436, 3437, 3498, 3497, 4717, 4718, 4779, 4778
3117, 3437, 3438, 3499, 3498, 4718, 4719, 4780, 4779
3118, 3438, 3439, 3500, 3499, 4719, 4720, 4781, 4780
3119, 3439, 3440, 3501, 3500, 4720, 4721, 4782, 4781
3120, 3440, 3441, 3502, 3501, 4721, 4722, 4783, 4782
3121, 3453, 3454, 3515, 3514, 4734, 4735, 4796, 4795
3122, 3454, 3455, 3516, 3515, 4735, 4736, 4797, 4796
3123, 3455, 3456, 3517, 3516, 4736, 4737, 4798, 4797
3124, 3456, 3457, 3518, 3517, 4737, 4738, 4799, 4798
3125, 3457, 3458, 3519, 3518, 4738, 4739, 4800, 4799
3126, 3458, 3459, 3520, 3519, 4739, 4740, 4801, 4800
3127, 3459, 3460, 3521, 3520, 4740, 4741, 4802, 4801
3128, 3460, 3461, 3522, 3521, 4741, 4742, 4803, 4802
3129, 3461, 3462, 3523, 3522, 4742, 4743, 4804, 4803
3130, 3462, 3463, 3524, 3523, 4743, 4744, 4805, 4804
3131, 3463, 3464, 3525, 3524, 4744, 4745, 4806, 4805
3132, 3464, 3465, 3526, 3525, 4745, 4746, 4807, 4806
3133, 3465, 3466, 3527, 3526, 4746, 4747, 4808, 4807
3134, 3466, 3467, 3528, 3527, 4747, 4748, 4809, 4808
3135, 3467, 3468, 3529, 3528, 4748, 4749, 4810, 4809
3136, 3468, 3469, 3530, 3529, 4749, 4750, 4811, 4810
3137, 3469, 3470, 3531, 3530, 4750, 4751, 4812, 4811
3138, 3470, 3471, 3532, 3531, 4751, 4752, 4813, 4812
3139, 3471, 3472, 3533, 3532, 4752, 4753, 4814, 4813
3140, 3472, 3473, 3534, 3533, 4753, 4754, 4815, 4814
3141, 3473, 3474, 3535, 3534, 4754, 4755, 4816, 4815
3142, 3474, 3475, 3536, 3535, 4755, 4756, 4817, 4816
3143, 3475, 3476, 3537, 3536, 4756, 4757, 4818, 4817
3144, 3476, 3477, 3538, 3537, 4757, 4758, 4819, 4818
3145, 3478, 3479, 3540, 3539, 4759, 4760, 4821, 4820
3146, 3479, 3480, 3541, 3540, 4760, 4761, 4822, 4821
3147, 3480, 3481, 3542, 3541, 4761, 4762, 4823, 4822
3148, 3481, 3482, 3543, 3542, 4762, 4763, 4824, 4823
3149, 3482, 3483, 3544, 3543, 4763, 4764, 4825, 4824
3150, 3483, 3484, 3545, 3544, 4764, 4765, 4826, 4825
3151, 3484, 3485, 3546, 3545, 4765, 4766, 4827, 4826
3152, 3485, 3486, 3547, 3546, 4766, 4767, 4828, 4827
3153, 3486, 3487, 3548, 3547, 4767, 4768, 4829, 4828
3154, 3487, 3488, 3549, 3548, 4768, 4769, 4830, 4829
3155, 3488, 3489, 3550, 3549, 4769, 4770, 4831, 4830
3156, 3489, 3490, 3551, 3550, 4770, 4771, 4832, 4831
3157, 3490, 3491, 3552, 3551, 4771, 4772, 4833, 4832
3158, 3491, 3492, 3553, 3552, 4772, 4773, 4834, 4833
3159, 3492, 3493, 3554, 3553, 4773, 4774, 4835, 4834
3160, 3493, 3494, 3555, 3554, 4774, 4775, 4836, 4835
3161, 3494, 3495, 3556, 3555, 4775, 4776, 4837, 4836
3162, 3495, 3496, 3557, 3556, 4776, 4777, 4838, 4837
3163, 3496, 3497, 3558, 3557, 4777, 4778, 4839, 4838
3164, 3497, 3498, 3559, 3558, 4778, 4779, 4840, 4839
3165, 3498, 3499, 3560, 3559, 4779, 4780, 4841, 4840
3166, 3499, 3500, 3561, 3560, 4780, 4781, 4842, 4841
3167, 3500, 3501, 3562, 3561, 4781, 4782, 4843, 4842
3168, 3501, 3502, 3563, 3562, 4782, 4783, 4844, 4843
3169, 3514, 3515, 3576, 3575, 4795, 4796, 4857, 4856
3170, 3515, 3516, 3577, 3576, 4796, 4797, 4858, 4857
3171, 3516, 3517, 3578, 3577, 4797, 4798, 4859, 4858
3172, 3517, 3518, 3579, 3578, 4798, 4799, 4860, 4859
3173, 3518, 3519, 3580, 3579, 4799, 4800, 4861, 4860
3174, 3519, 3520, 3581, 3580, 4800, 4801, 4862, 4861
3175, 3520, 3521, 3582, 3581, 4801, 4802, 4863, 4862
3176, 3521, 3522, 3583, 3582, 4802, 4803, 4864, 4863
3177, 3522, 3523, 3584, 3583, 4803, 4804, 4865, 4864
3178, 3523, 3524, 3585, 3584, 4804, 4805, 4866, 4865
3179, 3524, 3525, 3586, 3585, 4805, 4806, 4867, 4866
3180, 3525, 3526, 3587, 3586, 4806, 4807, 4868, 4867
3181, 3526, 3527, 3588, 3587, 4807, 4808, 4869, 4868
3182, 3527, 3528, 3589, 3588, 4808, 4809, 4870, 4869
3183, 3528, 3529, 3590, 3589, 4809, 4810, 4871, 4870
3184, 3529, 3530, 3591, 3590, 4810, 4811, 4872, 4871
3185, 3530, 3531, 3592, 3591, 4811, 4812, 4873, 4872
3186, 3531, 3532, 3593, 3592, 4812, 4813, 4874, 4873
3187, 3532, 3533, 3594, 3593, 4813, 4814, 4875, 4874
3188, 3533, 3534, 3595, 3594, 4814, 4815, 4876, 4875
3189, 3534, 3535, 3596, 3595, 4815, 4816, 4877, 4876
3190, 3535, 3536, 3597, 3596, 4816, 4817, 4878, 4877
3191, 3536, 3537, 3598, 3597, 4817, 4818, 4879, 4878
3192, 3537, 3538, 3599, 3598, 4818, 4819, 4880, 4879
3193, 3539, 3540, 3601, 3600, 4820, 4821, 4882, 4881
3194, 3540, 3541, 3602, 3601, 4821, 4822, 4883, 4882
3195, 3541, 3542, 3603, 3602, 4822, 4823, 4884, 4883
3196, 3542, 3543, 3604, 3603, 4823, 4824, 4885, 4884
3197, 3543, 3544, 3605, 3604, 4824, 4825, 4886, 4885
3198, 3544, 3545, 3606, 3605, 4825, 4826, 4887, 4886
3199, 3545, 3546, 3607, 3606, 4826, 4827, 4888, 4887
3200, 3546, 3547, 3608, 3607, 4827, 4828, 4889, 4888
3201, 3547, 3548, 3609, 3608, 4828, 4829, 4890, 4889
3202, 3548, 3549, 3610, 3609, 4829, 4830, 4891, 4890
3203, 3549, 3550, 3611, 3610, 4830, 4831, 4892, 4891
3204, 3550, 3551, 3612, 3611, 4831, 4832, 4893, 4892
3205, 3551, 3552, 3613, 3612, 4832, 4833, 4894, 4893
3206, 3552, 3553, 3614, 3613, 4833, 4834, 4895, 4894
3207, 3553, 3554, 3615, 3614, 4834, 4835, 4896, 4895
3208, 3554, 3555, 3616, 3615, 4835, 4836, 4897, 4896
3209, 3555, 3556, 3617, 3616, 4836, 4837, 4898, 4897
3210, 3556, 3557, 3618, 3617, 4837, 4838, 4899, 4898
3211, 3557, 3558, 3619, 3618, 4838, 4839, 4900, 4899
3212, 3558, 3559, 3620, 3619, 4839, 4840, 4901, 4900
3213, 3559, 3560, 3621, 3620, 4840, 4841, 4902, 4901
3214, 3560, 3561, 3622, 3621, 4841, 4842, 4903, 4902
3215, 3561, 3562, 3623, 3622, 4842, 4843, 4904, 4903
3216, 3562, 3563, 3624, 3623, 4843, 4844, 4905, 4904
3217, 3575, 3576, 3637, 3636, 4856, 4857, 4918, 4917
3218, 3576, 3577, 3638, 3637, 4857, 4858, 4919, 4918
3219, 3577, 3578, 3639, 3638, 4858, 4859, 4920, 4919
3220, 3578, 3579, 3640, 3639, 4859, 4860, 4921, 4920
3221, 3579, 3580, 3641, 3640, 4860, 4861, 4922, 4921
3222, 3580, 3581, 3642, 3641, 4861, 4862, 4923, 4922
3223, 3581, 3582, 3643, 3642, 4862, 4863, 4924, 4923
3224, 3582, 3583, 3644, 3643, 4863, 4864, 4925, 4924
3225, 3583, 3584, 3645, 3644, 4864, 4865, 4926, 4925
3226, 3584, 3585, 3646, 3645, 4865, 4866, 4927, 4926
3227, 3585, 3586, 3647, 3646, 4866, 4867, 4928, 4927
3228, 3586, 3587, 3648, 3647, 4867, 4868, 4929, 4928
3229, 3587, 3588, 3649, 3648, 4868, 4869, 4930, 4929
3230, 3588, 3589, 3650, 3649, 4869, 4870, 4931, 4930
3231, 3589, 3590, 3651, 3650, 4870, 4871, 4932, 4931
3232, 3590, 3591, 3652, 3651, 4871, 4872, 4933, 4932
3233, 3591, 3592, 3653, 3652, 4872, 4873, 4934, 4933
3234, 3592, 3593, 3654, 3653, 4873, 4874, 4935, 4934
3235, 3593, 3594, 3655, 3654, 4874, 4875, 4936, 4935
3236, 3594, 3595, 3656, 3655, 4875, 4876, 4937, 4936
3237, 3595, 3596, 3657, 3656, 4876, 4877, 4938, 4937
3238, 3596, 3597, 3658, 3657, 4877, 4878, 4939, 4938
3239, 3597, 3598, 3659, 3658, 4878, 4879, 4940, 4939
3240, 3598, 3599, 3660, 3659, 4879, 4880, 4941, 4940
3241, 3600, 3601, 3662, 3661, 4881, 4882, 4943, 4942
3242, 3601, 3602, 3663, 3662, 4882, 4883, 4944, 4943
3243, 3602, 3603, 3664, 3663, 4883, 4884, 4945, 4944
3244, 3603, 3604, 3665, 3664, 4884, 4885, 4946, 4945
3245, 3604, 3605, 3666, 3665, 4885, 4886, 4947, 4946
3246, 3605, 3606, 3667, 3666, 4886, 4887, 4948, 4947
3247, 3606, 3607, 3668, 3667, 4887, 4888, 4949, 4948
3248, 3607, 3608, 3669, 3668, 4888, 4889, 4950, 4949
3249, 3608, 3609, 3670, 3669, 4889, 4890, 4951, 4950
3250, 3609, 3610, 3671, 3670, 4890, 4891, 4952, 4951
3251, 3610, 3611, 3672, 3671, 4891, 4892, 4953, 4952
3252, 3611, 3612, 3673, 3672, 4892, 4893, 4954, 4953
3253, 3612, 3613, 3674, 3673, 4893, 4894, 4955, 4954
3254, 3613, 3614, 3675, 3674, 4894, 4895, 4956, 4955
3255, 3614, 3615, 3676, 3675, 4895, 4896, 4957, 4956
3256, 3615, 3616, 3677, 3676, 4896, 4897, 4958, 4957
3257, 3616, 3617, 3678, 3677, 4897, 4898, 4959, 4958
3258, 3617, 3618, 3679, 3678, 4898, 4899, 4960, 4959
3259, 3618, 3619, 3680, 3679, 4899, 4900, 4961, 4960
3260, 3619, 3620, 3681, 3680, 4900, 4901, 4962, 4961
3261, 3620, 3621, 3682, 3681, 4901, 4902, 4963, 4962
3262, 3621, 3622, 3683, 3682, 4902, 4903, 4964, 4963
3263, 3622, 3623, 3684, 3683, 4903, 4904, 4965, 4964
3264, 3623, 3624, 3685, 3684, 4904, 4905, 4966, 4965
3265, 3636, 3637, 3698, 3697, 4917, 4918, 4979, 4978
3266, 3637, 3638, 3699, 3698, 4918, 4919, 4980, 4979
3267, 3638, 3639, 3700, 3699, 4919, 4920, 4981, 4980
3268, 3639, 3640, 3701, 3700, 4920, 4921, 4982, 4981
3269, 3640, 3641, 3702, 3701, 4921, 4922, 4983, 4982
3270, 3641, 3642, 3703, 3702, 4922, 4923, 4984, 4983
3271, 3642, 3643, 3704, 3703, 4923, 4924, 4985, 4984
3272, 3643, 3644, 3705, 3704, 4924, 4925, 4986, 4985
3273, 3644, 3645, 3706, 3705, 4925, 4926, 4987, 4986
3274, 3645, 3646, 3707, 3706, 4926, 4927, 4988, 4987
3275, 3646, 3647, 3708, 3707, 4927, 4928, 4989, 4988
3276, 3647, 3648, 3709, 3708, 4928, 4929, 4990, 4989
3277, 3648, 3649, 3710, 3709, 4929, 4930, 4991, 4990
3278, 3649, 3650, 3711, 3710, 4930, 4931, 4992, 4991
3279, 3650, 3651, 3712, 3711, 4931, 4932, 4993, 4992
3280, 3651, 3652, 3713, 3712, 4932, 4933, 4994, 4993
3281, 3652, 3653, 3714, 3713, 4933, 4934, 4995, 4994
3282, 3653, 3654, 3715, 3714, 4934, 4935, 4996, 4995
3283, 3654, 3655, 3716, 3715, 4935, 4936, 4997, 4996
3284, 3655, 3656, 3717, 3716, 4936, 4937, 4998, 4997
3285, 3656, 3657, 3718, 3717, 4937, 4938, 4999, 4998
3286, 3657, 3658, 3719, 3718, 4938, 4939, 5000, 4999
3287, 3658, 3659, 3720, 3719, 4939, 4940, 5001, 5000
3288, 3659, 3660, 3721, 3720, 4940, 4941, 5002, 5001
3289, 3661, 3662, 3723, 3722, 4942, 4943, 5004, 5003
3290, 3662, 3663, 3724, 3723, 4943, 4944, 5005, 5004
3291, 3663, 3664, 3725, 3724, 4944, 4945, 5006, 5005
3292, 3664, 3665, 3726, 3725, 4945, 4946, 5007, 5006
3293, 3665, 3666, 3727, 3726, 4946, 4947, 5008, 5007
3294, 3666, 3667, 3728, 3727, 4947, 4948, 5009, 5008
3295, 3667, 3668, 3729, 3728, 4948, 4949, 5010, 5009
3296, 3668, 3669, 3730, 3729, 4949, 4950, 5011, 5010
3297, 3669, 3670, 3731, 3730, 4950, 4951, 5012, 5011
3298, 3670, 3671, 3732, 3731, 4951, 4952, 5013, 5012
3299, 3671, 3672, 3733, 3732, 4952, 4953, 5014, 5013
3300, 3672, 3673, 3734, 3733, 4953, 4954, 5015, 5014
3301, 3673, 3674, 3735, 3734, 4954, 4955, 5016, 5015
3302, 3674, 3675, 3736, 3735, 4955, 4956, 5017, 5016
3303, 3675, 3676, 3737, 3736, 4956, 4957, 5018, 5017
3304, 3676, 3677, 3738, 3737, 4957, 4958, 5019, 5018
3305, 3677, 3678, 3739, 3738, 4958, 4959, 5020, 5019
3306, 3678, 3679, 3740, 3739, 4959, 4960, 5021, 5020
3307, 3679, 3680, 3741, 3740, 4960, 4961, 5022, 5021
3308, 3680, 3681, 3742, 3741, 4961, 4962, 5023, 5022
3309, 3681, 3682, 3743, 3742, 4962, 4963, 5024, 5023
3310, 3682, 3683, 3744, 3743, 4963, 4964, 5025, 5024
3311, 3683, 3684, 3745, 3744, 4964, 4965, 5026, 5025
3312, 3684, 3685, 3746, 3745, 4965, 4966, 5027, 5026
3313, 3697, 3698, 3759, 3758, 4978, 4979, 5040, 5039
3314, 3698, 3699, 3760, 3759, 4979, 4980, 5041, 5040
3315, 3699, 3700, 3761, 3760, 4980, 4981, 5042, 5041
3316, 3700, 3701, 3762, 3761, 4981, 4982, 5043, 5042
3317, 3701, 3702, 3763, 3762, 4982, 4983, 5044, 5043
3318, 3702, 3703, 3764, 3763, 4983, 4984, 5045, 5044
3319, 3703, 3704, 3765, 3764, 4984, 4985, 5046, 5045
3320, 3704, 3705, 3766, 3765, 4985, 4986, 5047, 5046
3321, 3705, 3706, 3767, 3766, 4986, 4987, 5048, 5047
3322, 3706, 3707, 3768, 3767, 4987, 4988, 5049, 5048
3323, 3707, 3708, 3769, 3768, 4988, 4989, 5050, 5049
3324, 3708, 3709, 3770, 3769, 4989, 4990, 5051, 5050
3325, 3709, 3710, 3771, 3770, 4990, 4991, 5052, 5051
3326, 3710, 3711, 3772, 3771, 4991, 4992, 5053, 5052
3327, 3711, 3712, 3773, 3772, 4992, 4993, 5054, 5053
3328, 3712, 3713, 3774, 3773, 4993, 4994, 5055, 5054
3329, 3713, 3714, 3775, 3774, 4994, 4995, 5056, 5055
3330, 3714, 3715, 3776, 3775, 4995, 4996, 5057, 5056
3331, 3715, 3716, 3777, 3776, 4996, 4997, 5058, 5057
3332, 3716, 3717, 3778, 3777, 4997, 4998, 5059, 5058
3333, 3717, 3718, 3779, 3778, 4998, 4999, 5060, 5059
3334, 3718, 3719, 3780, 3779, 4999, 5000, 5061, 5060
3335, 3719, 3720, 3781, 3780, 5000, 5001, 5062, 5061
3336, 3720, 3721, 3782, 3781, 5001, 5002, 5063, 5062
3337, 3722, 3723, 3784, 3783, 5003, 5004, 5065, 5064
3338, 3723, 3724, 3785, 3784, 5004, 5005, 5066, 5065
3339, 3724, 3725, 3786, 3785, 5005, 5006, 5067, 5066
3340, 3725, 3726, 3787, 3786, 5006, 5007, 5068, 5067
3341, 3726, 3727, 3788, 3787, 5007, 5008, 5069, 5068
3342, 3727, 3728, 3789, 3788, 5008, 5009, 5070, 5069
3343, 3728, 3729, 3790, 3789, 5009, 5010, 5071, 5070
3344, 3729, 3730, 3791, 3790, 5010, 5011, 5072, 5071
3345, 3730, 3731, 3792, 3791, 5011, 5012, 5073, 5072
3346, 3731, 3732, 3793, 3792, 5012, 5013, 5074, 5073
3347, 3732, 3733, 3794, 3793, 5013, 5014, 5075, 5074
3348, 3733, 3734, 3795, 3794, 5014, 5015, 5076, 5075
3349, 3734, 3735, 3796, 3795, 5015, 5016, 5077, 5076
3350, 3735, 3736, 3797, 3796, 5016, 5017, 5078, 5077
3351, 3736, 3737, 3798, 3797, 5017, 5018, 5079, 5078
3352, 3737, 3738, 3799, 3798, 5018, 5019, 5080, 5079
3353, 3738, 3739, 3800, 3799, 5019, 5020, 5081, 5080
3354, 3739, 3740, 3801, 3800, 5020, 5021, 5082, 5081
3355, 3740, 3741, 3802, 3801, 5021, 5022, 5083, 5082
3356, 3741, 3742, 3803, 3802, 5022, 5023, 5084, 5083
3357, 3742, 3743, 3804, 3803, 5023, 5024, 5085, 5084
3358, 3743, 3744, 3805, 3804, 5024, 5025, 5086, 5085
3359, 3744, 3745, 3806, 3805, 5025, 5026, 5087, 5086
3360, 3745, 3746, 3807, 3806, 5026, 5027, 5088, 5087
3361, 3758, 3759, 3820, 3819, 5039, 5040, 5101, 5100
3362, 3759, 3760, 3821, 3820, 5040, 5041, 5102, 5101
3363, 3760, 3761, 3822, 3821, 5041, 5042, 5103, 5102
3364, 3761, 3762, 3823, 3822, 5042, 5043, 5104, 5103
3365, 3762, 3763, 3824, 3823, 5043, 5044, 5105, 5104
3366, 3763, 3764, 3825, 3824, 5044, 5045, 5106, 5105
3367, 3764, 3765, 3826, 3825, 5045, 5046, 5107, 5106
3368, 3765, 3766, 3827, 3826, 5046, 5047, 5108, 5107
3369, 3766, 3767, 3828, 3827, 5047, 5048, 5109, 5108
3370, 3767, 3768, 3829, 3828, 5048, 5049, 5110, 5109
3371, 3768, 3769, 3830, 3829, 5049, 5050, 5111, 5110
3372, 3769, 3770, 3831, 3830, 5050, 5051, 5112, 5111
3373, 3770, 3771, 3832, 3831, 5051, 5052, 5113, 5112
3374, 3771, 3772, 3833, 3832, 5052, 5053, 5114, 5113
3375, 3772, 3773, 3834, 3833, 5053, 5054, 5115, 5114
3376, 3773, 3774, 3835, 3834, 5054, 5055, 5116, 5115
3377, 3774, 3775, 3836, 3835, 5055, 5056, 5117, 5116
3378, 3775, 3776, 3837, 3836, 5056, 5057, 5118, 5117
3379, 3776, 3777, 3838, 3837, 5057, 5058, 5119, 5118
3380, 3777, 3778, 3839, 3838, 5058, 5059, 5120, 5119
3381, 3778, 3779, 3840, 3839, 5059, 5060, 5121, 5120
3382, 3779, 3780, 3841, 3840, 5060, 5061, 5122, 5121
3383, 3780, 3781, 3842, 3841, 5061, 5062, 5123, 5122
3384, 3781, 3782, 3843, 3842, 5062, 5063, 5124, 5123
3385, 3844, 3845, 3906, 3905, 5125, 5126, 5187, 5186
3386, 3845, 3846, 3907, 3906, 5126, 5127, 5188, 5187
3387, 3846, 3847, 3908, 3907, 5127, 5128, 5189, 5188
3388, 3847, 3848, 3909, 3908, 5128, 5129, 5190, 5189
3389, 3848, 3849, 3910, 3909, 5129, 5130, 5191, 5190
3390, 3849, 3850, 3911, 3910, 5130, 5131, 5192, 5191
3391, 3850, 3851, 3912, 3911, 5131, 5132, 5193, 5192
3392, 3851, 3852, 3913, 3912, 5132, 5133, 5194, 5193
3393, 3852, 3853, 3914, 3913, 5133, 5134, 5195, 5194
3394, 3853, 3854, 3915, 3914, 5134, 5135, 5196, 5195
3395, 3854, 3855, 3916, 3915, 5135, 5136, 5197, 5196
3396, 3855, 3856, 3917, 3916, 5136, 5137, 5198, 5197
3397, 3856, 3857, 3918, 3917, 5137, 5138, 5199, 5198
3398, 3857, 3858, 3919, 3918, 5138, 5139, 5200, 5199
3399, 3858, 3859, 3920, 3919, 5139, 5140, 5201, 5200
3400, 3859, 3860, 3921, 3920, 5140, 5141, 5202, 5201
3401, 3860, 3861, 3922, 3921, 5141, 5142, 5203, 5202
3402, 3861, 3862, 3923, 3922, 5142, 5143, 5204, 5203
3403, 3862, 3863, 3924, 3923, 5143, 5144, 5205, 5204
3404, 3863, 3864, 3925, 3924, 5144, 5145, 5206, 5205
3405, 3864, 3865, 3926, 3925, 5145, 5146, 5207, 5206
3406, 3865, 3866, 3927, 3926, 5146, 5147, 5208, 5207
3407, 3866, 3867, 3928, 3927, 5147, 5148, 5209, 5208
3408, 3867, 3868, 3929, 3928, 5148, 5149, 5210, 5209
3409, 3868, 3869, 3930, 3929, 5149, 5150, 5211, 5210
3410, 3869, 3870, 3931, 3930, 5150, 5151, 5212, 5211
3411, 3870, 3871, 3932, 3931, 5151, 5152, 5213, 5212
3412, 3871, 3872, 3933, 3932, 5152, 5153, 5214, 5213
3413, 3872, 3873, 3934, 3933, 5153, 5154, 5215, 5214
3414, 3873, 3874, 3935, 3934, 5154, 5155, 5216, 5215
3415, 3874, 3875, 3936, 3935, 5155, 5156, 5217, 5216
3416, 3875, 3876, 3937, 3936, 5156, 5157, 5218, 5217
3417, 3876, 3877, 3938, 3937, 5157, 5158, 5219, 5218
3418, 3877, 3878, 3939, 3938, 5158, 5159, 5220, 5219
3419, 3878, 3879, 3940, 3939, 5159, 5160, 5221, 5220
3420, 3879, 3880, 3941, 3940, 5160, 5161, 5222, 5221
3421, 3880, 3881, 3942, 3941, 5161, 5162, 5223, 5222
3422, 3881, 3882, 3943, 3942, 5162, 5163, 5224, 5223
3423, 3882, 3883, 3944, 3943, 5163, 5164, 5225, 5224
3424, 3883, 3884, 3945, 3944, 5164, 5165, 5226, 5225
3425, 3884, 3885, 3946, 3945, 5165, 5166, 5227, 5226
3426, 3885, 3886, 3947, 3946, 5166, 5167, 5228, 5227
3427, 3886, 3887, 3948, 3947, 5167, 5168, 5229, 5228
3428, 3887, 3888, 3949, 3948, 5168, 5169, 5230, 5229
3429, 3888, 3889, 3950, 3949, 5169, 5170, 5231, 5230
3430, 3889, 3890, 3951, 3950, 5170, 5171, 5232, 5231
3431, 3890, 3891, 3952, 3951, 5171, 5172, 5233, 5232
3432, 3891, 3892, 3953, 3952, 5172, 5173, 5234, 5233
3433, 3892, 3893, 3954, 3953, 5173, 5174, 5235, 5234
3434, 3893, 3894, 3955, 3954, 5174, 5175, 5236, 5235
3435, 3894, 3895, 3956, 3955, 5175, 5176, 5237, 5236
3436, 3895, 3896, 3957, 3956, 5176, 5177, 5238, 5237
3437, 3896, 3897, 3958, 3957, 5177, 5178, 5239, 5238
3438, 3897, 3898, 3959, 3958, 5178, 5179, 5240, 5239
3439, 3898, 3899, 3960, 3959, 5179, 5180, 5241, 5240
3440, 3899, 3900, 3961, 3960, 5180, 5181, 5242, 5241
3441, 3900, 3901, 3962, 3961, 5181, 5182, 5243, 5242
3442, 3901, 3902, 3963, 3962, 5182, 5183, 5244, 5243
3443, 3902, 3903, 3964, 3963, 5183, 5184, 5245, 5244
3444, 3903, 3904, 3965, 3964, 5184, 5185, 5246, 5245
3445, 3905, 3906, 3967, 3966, 5186, 5187, 5248, 5247
3446, 3906, 3907, 3968, 3967, 5187, 5188, 5249, 5248
3447, 3907, 3908, 3969, 3968, 5188, 5189, 5250, 5249
3448, 3908, 3909, 3970, 3969, 5189, 5190, 5251, 5250
3449, 3909, 3910, 3971, 3970, 5190, 5191, 5252, 5251
3450, 3910, 3911, 3972, 3971, 5191, 5192, 5253, 5252
3451, 3911, 3912, 3973, 3972, 5192, 5193, 5254, 5253
3452, 3912, 3913, 3974, 3973, 5193, 5194, 5255, 5254
3453, 3913, 3914, 3975, 3974, 5194, 5195, 5256, 5255
3454, 3914, 3915, 3976, 3975, 5195, 5196, 5257, 5256
3455, 3915, 3916, 3977, 3976, 5196, 5197, 5258, 5257
3456, 3916, 3917, 3978, 3977, 5197, 5198, 5259, 5258
3457, 3917, 3918, 3979, 3978, 5198, 5199, 5260, 5259
3458, 3918, 3919, 3980, 3979, 5199, 5200, 5261, 5260
3459, 3919, 3920, 3981, 3980, 5200, 5201, 5262, 5261
3460, 3920, 3921, 3982, 3981, 5201, 5202, 5263, 5262
3461, 3921, 3922, 3983, 3982, 5202, 5203, 5264, 5263
3462, 3922, 3923, 3984, 3983, 5203, 5204, 5265, 5264
3463, 3923, 3924, 3985, 3984, 5204, 5205, 5266, 5265
3464, 3924, 3925, 3986, 3985, 5205, 5206, 5267, 5266
3465, 3925, 3926, 3987, 3986, 5206, 5207, 5268, 5267
3466, 3926, 3927, 3988, 3987, 5207, 5208, 5269, 5268
3467, 3927, 3928, 3989, 3988, 5208, 5209, 5270, 5269
3468, 3928, 3929, 3990, 3989, 5209, 5210, 5271, 5270
3469, 3929, 3930, 3991, 3990, 5210, 5211, 5272, 5271
3470, 3930, 3931, 3992, 3991, 5211, 5212, 5273, 5272
3471, 3931, 3932, 3993, 3992, 5212, 5213, 5274, 5273
3472, 3932, 3933, 3994, 3993, 5213, 5214, 5275, 5274
3473, 3933, 3934, 3995, 3994, 5214, 5215, 5276, 5275
3474, 3934, 3935, 3996, 3995, 5215, 5216, 5277, 5276
3475, 3935, 3936, 3997, 3996, 5216, 5217, 5278, 5277
3476, 3936, 3937, 3998, 3997, 5217, 5218, 5279, 5278
3477, 3937, 3938, 3999, 3998, 5218, 5219, 5280, 5279
3478, 3938, 3939, 4000, 3999, 5219, 5220, 5281, 5280
3479, 3939, 3940, 4001, 4000, 5220, 5221, 5282, 5281
3480, 3940, 3941, 4002, 4001, 5221, 5222, 5283, 5282
3481, 3941, 3942, 4003, 4002, 5222, 5223, 5284, 5283
3482, 3942, 3943, 4004, 4003, 5223, 5224, 5285, 5284
3483, 3943, 3944, 4005, 4004, 5224, 5225, 5286, 5285
3484, 3944, 3945, 4006, 4005, 5225, 5226, 5287, 5286
3485, 3945, 3946, 4007, 4006, 5226, 5227, 5288, 5287
3486, 3946, 3947, 4008, 4007, 5227, 5228, 5289, 5288
3487, 3947, 3948, 4009, 4008, 5228, 5229, 5290, 5289
3488, 3948, 3949, 4010, 4009, 5229, 5230, 5291, 5290
3489, 3949, 3950, 4011, 4010, 5230, 5231, 5292, 5291
3490, 3950, 3951, 4012, 4011, 5231, 5232, 5293, 5292
3491, 3951, 3952, 4013, 4012, 5232, 5233, 5294, 5293
3492, 3952, 3953, 4014, 4013, 5233, 5234, 5295, 5294
3493, 3953, 3954, 4015, 4014, 5234, 5235, 5296, 5295
3494, 3954, 3955, 4016, 4015, 5235, 5236, 5297, 5296
3495, 3955, 3956, 4017, 4016, 5236, 5237, 5298, 5297
3496, 3956, 3957, 4018, 4017, 5237, 5238, 5299, 5298
3497, 3957, 3958, 4019, 4018, 5238, 5239, 5300, 5299
3498, 3958, 3959, 4020, 4019, 5239, 5240, 5301, 5300
3499, 3959, 3960, 4021, 4020, 5240, 5241, 5302, 5301
3500, 3960, 3961, 4022, 4021, 5241, 5242, 5303, 5302
3501, 3961, 3962, 4023, 4022, 5242, 5243, 5304, 5303
3502, 3962, 3963, 4024, 4023, 5243, 5244, 5305, 5304
3503, 3963, 3964, 4025, 4024, 5244, 5245, 5306, 5305
3504, 3964, 3965, 4026, 4025, 5245, 5246, 5307, 5306
3505, 3966, 3967, 4028, 4027, 5247, 5248, 5309, 5308
3506, 3967, 3968, 4029, 4028, 5248, 5249, 5310, 5309
3507, 3968, 3969, 4030, 4029, 5249, 5250, 5311, 5310
3508, 3969, 3970, 4031, 4030, 5250, 5251, 5312, 5311
3509, 3970, 3971, 4032, 4031, 5251, 5252, 5313, 5312
3510, 3971, 3972, 4033, 4032, 5252, 5253, 5314, 5313
3511, 3972, 3973, 4034, 4033, 5253, 5254, 5315, 5314
3512, 3973, 3974, 4035, 4034, 5254, 5255, 5316, 5315
3513, 3974, 3975, 4036, 4035, 5255, 5256, 5317, 5316
3514, 3975, 3976, 4037, 4036, 5256, 5257, 5318, 5317
3515, 3976, 3977, 4038, 4037, 5257, 5258, 5319, 5318
3516, 3977, 3978, 4039, 4038, 5258, 5259, 5320, 5319
3517, 3978, 3979, 4040, 4039, 5259, 5260, 5321, 5320
3518, 3979, 3980, 4041, 4040, 5260, 5261, 5322, 5321
3519, 3980, 3981, 4042, 4041, 5261, 5262, 5323, 5322
3520, 3981, 3982, 4043, 4042, 5262, 5263, 5324, 5323
3521, 3982, 3983, 4044, 4043, 5263, 5264, 5325, 5324
3522, 3983, 3984, 4045, 4044, 5264, 5265, 5326, 5325
3523, 3984, 3985, 4046, 4045, 5265, 5266, 5327, 5326
3524, 3985, 3986, 4047, 4046, 5266, 5267, 5328, 5327
3525, 3986, 3987, 4048, 4047, 5267, 5268, 5329, 5328
3526, 3987, 3988, 4049, 4048, 5268, 5269, 5330, 5329
3527, 3988, 3989, 4050, 4049, 5269, 5270, 5331, 5330
3528, 3989, 3990, 4051, 4050, 5270, 5271, 5332, 5331
3529, 3990, 3991, 4052, 4051, 5271, 5272, 5333, 5332
3530, 3991, 3992, 4053, 4052, 5272, 5273, 5334, 5333
3531, 3992, 3993, 4054, 4053, 5273, 5274, 5335, 5334
3532, 3993, 3994, 4055, 4054, 5274, 5275, 5336, 5335
3533, 3994, 3995, 4056, 4055, 5275, 5276, 5337, 5336
3534, 3995, 3996, 4057, 4056, 5276, 5277, 5338, 5337
3535, 3996, 3997, 4058, 4057, 5277, 5278, 5339, 5338
3536, 3997, 3998, 4059, 4058, 5278, 5279, 5340, 5339
3537, 3998, 3999, 4060, 4059, 5279, 5280, 5341, 5340
3538, 3999, 4000, 4061, 4060, 5280, 5281, 5342, 5341
3539, 4000, 4001, 4062, 4061, 5281, 5282, 5343, 5342
3540, 4001, 4002, 4063, 4062, 5282, 5283, 5344, 5343
3541, 4002, 4003, 4064, 4063, 5283, 5284, 5345, 5344
3542, 4003, 4004, 4065, 4064, 5284, 5285, 5346, 5345
3543, 4004, 4005, 4066, 4065, 5285, 5286, 5347, 5346
3544, 4005, 4006, 4067, 4066, 5286, 5287, 5348, 5347
3545, 4006, 4007, 4068, 4067, 5287, 5288, 5349, 5348
3546, 4007, 4008, 4069, 4068, 5288, 5289, 5350, 5349
3547, 4008, 4009, 4070, 4069, 5289, 5290, 5351, 5350
3548, 4009, 4010, 4071, 4070, 5290, 5291, 5352, 5351
3549, 4010, 4011, 4072, 4071, 5291, 5292, 5353, 5352
3550, 4011, 4012, 4073, 4072, 5292, 5293, 5354, 5353
3551, 4012, 4013, 4074, 4073, 5293, 5294, 5355, 5354
3552, 4013, 4014, 4075, 4074, 5294, 5295, 5356, 5355
3553, 4014, 4015, 4076, 4075, 5295, 5296, 5357, 5356
3554, 4015, 4016, 4077, 4076, 5296, 5297, 5358, 5357
3555, 4016, 4017, 4078, 4077, 5297, 5298, 5359, 5358
3556, 4017, 4018, 4079, 4078, 5298, 5299, 5360, 5359
3557, 4018, 4019, 4080, 4079, 5299, 5300, 5361, 5360
3558, 4019, 4020, 4081, 4080, 5300, 5301, 5362, 5361
3559, 4020, 4021, 4082, 4081, 5301, 5302, 5363, 5362
3560, 4021, 4022, 4083, 4082, 5302, 5303, 5364, 5363
3561, 4022, 4023, 4084, 4083, 5303, 5304, 5365, 5364
3562, 4023, 4024, 4085, 4084, 5304, 5305, 5366, 5365
3563, 4024, 4025, 4086, 4085, 5305, 5306, 5367, 5366
3564, 4025, 4026, 4087, 4086, 5306, 5307, 5368, 5367
3565, 4027, 4028, 4089, 4088, 5308, 5309, 5370, 5369
3566, 4028, 4029, 4090, 4089, 5309, 5310, 5371, 5370
3567, 4029, 4030, 4091, 4090, 5310, 5311, 5372, 5371
3568, 4030, 4031, 4092, 4091, 5311, 5312, 5373, 5372
3569, 4031, 4032, 4093, 4092, 5312, 5313, 5374, 5373
3570, 4032, 4033, 4094, 4093, 5313, 5314, 5375, 5374
3571, 4033, 4034, 4095, 4094, 5314, 5315, 5376, 5375
3572, 4034, 4035, 4096, 4095, 5315, 5316, 5377, 5376
3573, 4035, 4036, 4097, 4096, 5316, 5317, 5378, 5377
3574, 4036, 4037, 4098, 4097, 5317, 5318, 5379, 5378
3575, 4037, 4038, 4099, 4098, 5318, 5319, 5380, 5379
3576, 4038, 4039, 4100, 4099, 5319, 5320, 5381, 5380
3577, 4039, 4040, 4101, 4100, 5320, 5321, 5382, 5381
3578, 4040, 4041, 4102, 4101, 5321, 5322, 5383, 5382
3579, 4041, 4042, 4103, 4102, 5322, 5323, 5384, 5383
3580, 4042, 4043, 4104, 4103, 5323, 5324, 5385, 5384
3581, 4043, 4044, 4105, 4104, 5324, 5325, 5386, 5385
3582, 4044, 4045, 4106, 4105, 5325, 5326, 5387, 5386
3583, 4045, 4046, 4107, 4106, 5326, 5327, 5388, 5387
3584, 4046, 4047, 4108, 4107, 5327, 5328, 5389, 5388
3585, 4047, 4048, 4109, 4108, 5328, 5329, 5390, 5389
3586, 4048, 4049, 4110, 4109, 5329, 5330, 5391, 5390
3587, 4049, 4050, 4111, 4110, 5330, 5331, 5392, 5391
3588, 4050, 4051, 4112, 4111, 5331, 5332, 5393, 5392
3589, 4051, 4052, 4113, 4112, 5332, 5333, 5394, 5393
3590, 4052, 4053, 4114, 4113, 5333, 5334, 5395, 5394
3591, 4053, 4054, 4115, 4114, 5334, 5335, 5396, 5395
3592, 4054, 4055, 4116, 4115, 5335, 5336, 5397, 5396
3593, 4055, 4056, 4117, 4116, 5336, 5337, 5398, 5397
3594, 4056, 4057, 4118, 4117, 5337, 5338, 5399, 5398
3595, 4057, 4058, 4119, 4118, 5338, 5339, 5400, 5399
3596, 4058, 4059, 4120, 4119, 5339, 5340, 5401, 5400
3597, 4059, 4060, 4121, 4120, 5340, 5341, 5402, 5401
3598, 4060, 4061, 4122, 4121, 5341, 5342, 5403, 5402
3599, 4061, 4062, 4123, 4122, 5342, 5343, 5404, 5403
3600, 4062, 4063, 4124, 4123, 5343, 5344, 5405, 5404
3601, 4063, 4064, 4125, 4124, 5344, 5345, 5406, 5405
3602, 4064, 4065, 4126, 4125, 5345, 5346, 5407, 5406
3603, 4065, 4066, 4127, 4126, 5346, 5347, 5408, 5407
3604, 4066, 4067, 4128, 4127, 5347, 5348, 5409, 5408
3605, 4067, 4068, 4129, 4128, 5348, 5349, 5410, 5409
3606, 4068, 4069, 4130, 4129, 5349, 5350, 5411, 5410
3607, 4069, 4070, 4131, 4130, 5350, 5351, 5412, 5411
3608, 4070, 4071, 4132, 4131, 5351, 5352, 5413, 5412
3609, 4071, 4072, 4133, 4132, 5352, 5353, 5414, 5413
3610, 4072, 4073, 4134, 4133, 5353, 5354, 5415, 5414
3611, 4073, 4074, 4135, 4134, 5354, 5355, 5416, 5415
3612, 4074, 4075, 4136, 4135, 5355, 5356, 5417, 5416
3613, 4075, 4076, 4137, 4136, 5356, 5357, 5418, 5417
3614, 4076, 4077, 4138, 4137, 5357, 5358, 5419, 5418
3615, 4077, 4078, 4139, 4138, 5358, 5359, 5420, 5419
3616, 4078, 4079, 4140, 4139, 5359, 5360, 5421, 5420
3617, 4079, 4080, 4141, 4140, 5360, 5361, 5422, 5421
3618, 4080, 4081, 4142, 4141, 5361, 5362, 5423, 5422
3619, 4081, 4082, 4143, 4142, 5362, 5363, 5424, 5423
3620, 4082, 4083, 4144, 4143, 5363, 5364, 5425, 5424
3621, 4083, 4084, 4145, 4144, 5364, 5365, 5426, 5425
3622, 4084, 4085, 4146, 4145, 5365, 5366, 5427, 5426
3623, 4085, 4086, 4147, 4146, 5366, 5367, 5428, 5427
3624, 4086, 4087, 4148, 4147, 5367, 5368, 5429, 5428
3625, 4088, 4089, 4150, 4149, 5369, 5370, 5431, 5430
3626, 4089, 4090, 4151, 4150, 5370, 5371, 5432, 5431
3627, 4090, 4091, 4152, 4151, 5371, 5372, 5433, 5432
3628, 4091, 4092, 4153, 4152, 5372, 5373, 5434, 5433
3629, 4092, 4093, 4154, 4153, 5373, 5374, 5435, 5434
3630, 4093, 4094, 4155, 4154, 5374, 5375, 5436, 5435
3631, 4094, 4095, 4156, 4155, 5375, 5376, 5437, 5436
3632, 4095, 4096, 4157, 4156, 5376, 5377, 5438, 5437
3633, 4096, 4097, 4158, 4157, 5377, 5378, 5439, 5438
3634, 4097, 4098, 4159, 4158, 5378, 5379, 5440, 5439
3635, 4098, 4099, 4160, 4159, 5379, 5380, 5441, 5440
3636, 4099, 4100, 4161, 4160, 5380, 5381, 5442, 5441
3637, 4100, 4101, 4162, 4161, 5381, 5382, 5443, 5442
3638, 4101, 4102, 4163, 4162, 5382, 5383, 5444, 5443
3639, 4102, 4103, 4164, 4163, 5383, 5384, 5445, 5444
3640, 4103, 4104, 4165, 4164, 5384, 5385, 5446, 5445
3641, 4104, 4105, 4166, 4165, 5385, 5386, 5447, 5446
3642, 4105, 4106, 4167, 4166, 5386, 5387, 5448, 5447
3643, 4106, 4107, 4168, 4167, 5387, 5388, 5449, 5448
3644, 4107, 4108, 4169, 4168, 5388, 5389, 5450, 5449
3645, 4108, 4109, 4170, 4169, 5389, 5390, 5451, 5450
3646, 4109, 4110, 4171, 4170, 5390, 5391, 5452, 5451
3647, 4110, 4111, 4172, 4171, 5391, 5392, 5453, 5452
3648, 4111, 4112, 4173, 4172, 5392, 5393, 5454, 5453
3649, 4112, 4113, 4174, 4173, 5393, 5394, 5455, 5454
3650, 4113, 4114, 4175, 4174, 5394, 5395, 5456, 5455
3651, 4114, 4115, 4176, 4175, 5395, 5396, 5457, 5456
3652, 4115, 4116, 4177, 4176, 5396, 5397, 5458, 5457
3653, 4116, 4117, 4178, 4177, 5397, 5398, 5459, 5458
3654, 4117, 4118, 4179, 4178, 5398, 5399, 5460, 5459
3655, 4118, 4119, 4180, 4179, 5399, 5400, 5461, 5460
3656, 4119, 4120, 4181, 4180, 5400, 5401, 5462, 5461
3657, 4120, 4121, 4182, 4181, 5401, 5402, 5463, 5462
3658, 4121, 4122, 4183, 4182, 5402, 5403, 5464, 5463
3659, 4122, 4123, 4184, 4183, 5403, 5404, 5465, 5464
3660, 4123, 4124, 4185, 4184, 5404, 5405, 5466, 5465
3661, 4124, 4125, 4186, 4185, 5405, 5406, 5467, 5466
3662, 4125, 4126, 4187, 4186, 5406, 5407, 5468, 5467
3663, 4126, 4127, 4188, 4187, 5407, 5408, 5469, 5468
3664, 4127, 4128, 4189, 4188, 5408, 5409, 5470, 5469
3665, 4128, 4129, 4190, 4189, 5409, 5410, 5471, 5470
3666, 4129, 4130, 4191, 4190, 5410, 5411, 5472, 5471
3667, 4130, 4131, 4192, 4191, 5411, 5412, 5473, 5472
3668, 4131, 4132, 4193, 4192, 5412, 5413, 5474, 5473
3669, 4132, 4133, 4194, 4193, 5413, 5414, 5475, 5474
3670, 4133, 4134, 4195, 4194, 5414, 5415, 5476, 5475
3671, 4134, 4135, 4196, 4195, 5415, 5416, 5477, 5476
3672, 4135, 4136, 4197, 4196, 5416, 5417, 5478, 5477
3673, 4136, 4137, 4198, 4197, 5417, 5418, 5479, 5478
3674, 4137, 4138, 4199, 4198, 5418, 5419, 5480, 5479
3675, 4138, 4139, 4200, 4199, 5419, 5420, 5481, 5480
3676, 4139, 4140, 4201, 4200, 5420, 5421, 5482, 5481
3677, 4140, 4141, 4202, 4201, 5421, 5422, 5483, 5482
3678, 4141, 4142, 4203, 4202, 5422, 5423, 5484, 5483
3679, 4142, 4143, 4204, 4203, 5423, 5424, 5485, 5484
3680, 4143, 4144, 4205, 4204, 5424, 5425, 5486, 5485
3681, 4144, 4145, 4206, 4205, 5425, 5426, 5487, 5486
3682, 4145, 4146, 4207, 4206, 5426, 5427, 5488, 5487
3683, 4146, 4147, 4208, 4207, 5427, 5428, 5489, 5488
3684, 4147, 4148, 4209, 4208, 5428, 5429, 5490, 5489
3685, 4149, 4150, 4211, 4210, 5430, 5431, 5492, 5491
3686, 4150, 4151, 4212, 4211, 5431, 5432, 5493, 5492
3687, 4151, 4152, 4213, 4212, 5432, 5433, 5494, 5493
3688, 4152, 4153, 4214, 4213, 5433, 5434, 5495, 5494
3689, 4153, 4154, 4215, 4214, 5434, 5435, 5496, 5495
3690, 4154, 4155, 4216, 4215, 5435, 5436, 5497, 5496
3691, 4155, 4156, 4217, 4216, 5436, 5437, 5498, 5497
3692, 4156, 4157, 4218, 4217, 5437, 5438, 5499, 5498
3693, 4157, 4158, 4219, 4218, 5438, 5439, 5500, 5499
3694, 4158, 4159, 4220, 4219, 5439, 5440, 5501, 5500
3695, 4159, 4160, 4221, 4220, 5440, 5441, 5502, 5501
3696, 4160, 4161, 4222, 4221, 5441, 5442, 5503, 5502
3697, 4161, 4162, 4223, 4222, 5442, 5443, 5504, 5503
3698, 4162, 4163, 4224, 4223, 5443, 5444, 5505, 5504
3699, 4163, 4164, 4225, 4224, 5444, 5445, 5506, 5505
3700, 4164, 4165, 4226, 4225, 5445, 5446, 5507, 5506
3701, 4165, 4166, 4227, 4226, 5446, 5447, 5508, 5507
3702, 4166, 4167, 4228, 4227, 5447, 5448, 5509, 5508
3703, 4167, 4168, 4229, 4228, 5448, 5449, 5510, 5509
3704, 4168, 4169, 4230, 4229, 5449, 5450, 5511, 5510
3705, 4169, 4170, 4231, 4230, 5450, 5451, 5512, 5511
3706, 4170, 4171, 4232, 4231, 5451, 5452, 5513, 5512
3707, 4171, 4172, 4233, 4232, 5452, 5453, 5514, 5513
3708, 4172, 4173, 4234, 4233, 5453, 5454, 5515, 5514
3709, 4173, 4174, 4235, 4234, 5454, 5455, 5516, 5515
3710, 4174, 4175, 4236, 4235, 5455, 5456, 5517, 5516
3711, 4175, 4176, 4237, 4236, 5456, 5457, 5518, 5517
3712, 4176, 4177, 4238, 4237, 5457, 5458, 5519, 5518
3713, 4177, 4178, 4239, 4238, 5458, 5459, 5520, 5519
3714, 4178, 4179, 4240, 4239, 5459, 5460, 5521, 5520
3715, 4179, 4180, 4241, 4240, 5460, 5461, 5522, 5521
3716, 4180, 4181, 4242, 4241, 5461, 5462, 5523, 5522
3717, 4181, 4182, 4243, 4242, 5462, 5463, 5524, 5523
3718, 4182, 4183, 4244, 4243, 5463, 5464, 5525, 5524
3719, 4183, 4184, 4245, 4244, 5464, 5465, 5526, 5525
3720, 4184, 4185, 4246, 4245, 5465, 5466, 5527, 5526
3721, 4185, 4186, 4247, 4246, 5466, 5467, 5528, 5527
3722, 4186, 4187, 4248, 4247, 5467, 5468, 5529, 5528
3723, 4187, 4188, 4249, 4248, 5468, 5469, 5530, 5529
3724, 4188, 4189, 4250, 4249, 5469, 5470, 5531, 5530
3725, 4189, 4190, 4251, 4250, 5470, 5471, 5532, 5531
3726, 4190, 4191, 4252, 4251, 5471, 5472, 5533, 5532
3727, 4191, 4192, 4253, 4252, 5472, 5473, 5534, 5533
3728, 4192, 4193, 4254, 4253, 5473, 5474, 5535, 5534
3729, 4193, 4194, 4255, 4254, 5474, 5475, 5536, 5535
3730, 4194, 4195, 4256, 4255, 5475, 5476, 5537, 5536
3731, 4195, 4196, 4257, 4256, 5476, 5477, 5538, 5537
3732, 4196, 4197, 4258, 4257, 5477, 5478, 5539, 5538
3733, 4197, 4198, 4259, 4258, 5478, 5479, 5540, 5539
3734, 4198, 4199, 4260, 4259, 5479, 5480, 5541, 5540
3735, 4199, 4200, 4261, 4260, 5480, 5481, 5542, 5541
3736, 4200, 4201, 4262, 4261, 5481, 5482, 5543, 5542
3737, 4201, 4202, 4263, 4262, 5482, 5483, 5544, 5543
3738, 4202, 4203, 4264, 4263, 5483, 5484, 5545, 5544
3739, 4203, 4204, 4265, 4264, 5484, 5485, 5546, 5545
3740, 4204, 4205, 4266, 4265, 5485, 5486, 5547, 5546
3741, 4205, 4206, 4267, 4266, 5486, 5487, 5548, 5547
3742, 4206, 4207, 4268, 4267, 5487, 5488, 5549, 5548
3743, 4207, 4208, 4269, 4268, 5488, 5489, 5550, 5549
3744, 4208, 4209, 4270, 4269, 5489, 5490, 5551, 5550
3745, 4210, 4211, 4272, 4271, 5491, 5492, 5553, 5552
3746, 4211, 4212, 4273, 4272, 5492, 5493, 5554, 5553
3747, 4212, 4213, 4274, 4273, 5493, 5494, 5555, 5554
3748, 4213, 4214, 4275, 4274, 5494, 5495, 5556, 5555
3749, 4214, 4215, 4276, 4275, 5495, 5496, 5557, 5556
3750, 4215, 4216, 4277, 4276, 5496, 5497, 5558, 5557
3751, 4216, 4217, 4278, 4277, 5497, 5498, 5559, 5558
3752, 4217, 4218, 4279, 4278, 5498, 5499, 5560, 5559
3753, 4218, 4219, 4280, 4279, 5499, 5500, 5561, 5560
3754, 4219, 4220, 4281, 4280, 5500, 5501, 5562, 5561
3755, 4220, 4221, 4282, 4281, 5501, 5502, 5563, 5562
3756, 4221, 4222, 4283, 4282, 5502, 5503, 5564, 5563
3757, 4222, 4223, 4284, 4283, 5503, 5504, 5565, 5564
3758, 4223, 4224, 4285, 4284, 5504, 5505, 5566, 5565
3759, 4224, 4225, 4286, 4285, 5505, 5506, 5567, 5566
3760, 4225, 4226, 4287, 4286, 5506, 5507, 5568, 5567
3761, 4226, 4227, 4288, 4287, 5507, 5508, 5569, 5568
3762, 4227, 4228, 4289, 4288, 5508, 5509, 5570, 5569
3763, 4228, 4229, 4290, 4289, 5509, 5510, 5571, 5570
3764, 4229, 4230, 4291, 4290, 5510, 5511, 5572, 5571
3765, 4230, 4231, 4292, 4291, 5511, 5512, 5573, 5572
3766, 4231, 4232, 4293, 4292, 5512, 5513, 5574, 5573
3767, 4232, 4233, 4294, 4293, 5513, 5514, 5575, 5574
3768, 4233, 4234, 4295, 4294, 5514, 5515, 5576, 5575
3769, 4234, 4235, 4296, 4295, 5515, 5516, 5577, 5576
3770, 4235, 4236, 4297, 4296, 5516, 5517, 5578, 5577
3771, 4236, 4237, 4298, 4297, 5517, 5518, 5579, 5578
3772, 4237, 4238, 4299, 4298, 5518, 5519, 5580, 5579
3773, 4238, 4239, 4300, 4299, 5519, 5520, 5581, 5580
3774, 4239, 4240, 4301, 4300, 5520, 5521, 5582, 5581
3775, 4240, 4241, 4302, 4301, 5521, 5522, 5583, 5582
3776, 4241, 4242, 4303, 4302, 5522, 5523, 5584, 5583
3777, 4242, 4243, 4304, 4303, 5523, 5524, 5585, 5584
3778, 4243, 4244, 4305, 4304, 5524, 5525, 5586, 5585
3779, 4244, 4245, 4306, 4305, 5525, 5526, 5587, 5586
3780, 4245, 4246, 4307, 4306, 5526, 5527, 5588, 5587
3781, 4246, 4247, 4308, 4307, 5527, 5528, 5589, 5588
3782, 4247, 4248, 4309, 4308, 5528, 5529, 5590, 5589
3783, 4248, 4249, 4310, 4309, 5529, 5530, 5591, 5590
3784, 4249, 4250, 4311, 4310, 5530, 5531, 5592, 5591
3785, 4250, 4251, 4312, 4311, 5531, 5532, 5593, 5592
3786, 4251, 4252, 4313, 4312, 5532, 5533, 5594, 5593
3787, 4252, 4253, 4314, 4313, 5533, 5534, 5595, 5594
3788, 4253, 4254, 4315, 4314, 5534, 5535, 5596, 5595
3789, 4254, 4255, 4316, 4315, 5535, 5536, 5597, 5596
3790, 4255, 4256, 4317, 4316, 5536, 5537, 5598, 5597
3791, 4256, 4257, 4318, 4317, 5537, 5538, 5599, 5598
3792, 4257, 4258, 4319, 4318, 5538, 5539, 5600, 5599
3793, 4258, 4259, 4320, 4319, 5539, 5540, 5601, 5600
3794, 4259, 4260, 4321, 4320, 5540, 5541, 5602, 5601
3795, 4260, 4261, 4322, 4321, 5541, 5542, 5603, 5602
3796, 4261, 4262, 4323, 4322, 5542, 5543, 5604, 5603
3797, 4262, 4263, 4324, 4323, 5543, 5544, 5605, 5604
3798, 4263, 4264, 4325, 4324, 5544, 5545, 5606, 5605
3799, 4264, 4265, 4326, 4325, 5545, 5546, 5607, 5606
3800, 4265, 4266, 4327, 4326, 5546, 5547, 5608, 5607
3801, 4266, 4267, 4328, 4327, 5547, 5548, 5609, 5608
3802, 4267, 4268, 4329, 4328, 5548, 5549, 5610, 5609
3803, 4268, 4269, 4330, 4329, 5549, 5550, 5611, 5610
3804, 4269, 4270, 4331, 4330, 5550, 5551, 5612, 5611
3805, 4271, 4272, 4333, 4332, 5552, 5553, 5614, 5613
3806, 4272, 4273, 4334, 4333, 5553, 5554, 5615, 5614
3807, 4273, 4274, 4335, 4334, 5554, 5555, 5616, 5615
3808, 4274, 4275, 4336, 4335, 5555, 5556, 5617, 5616
3809, 4275, 4276, 4337, 4336, 5556, 5557, 5618, 5617
3810, 4276, 4277, 4338, 4337, 5557, 5558, 5619, 5618
3811, 4277, 4278, 4339, 4338, 5558, 5559, 5620, 5619
3812, 4278, 4279, 4340, 4339, 5559, 5560, 5621, 5620
3813, 4279, 4280, 4341, 4340, 5560, 5561, 5622, 5621
3814, 4280, 4281, 4342, 4341, 5561, 5562, 5623, 5622
3815, 4281, 4282, 4343, 4342, 5562, 5563, 5624, 5623
3816, 4282, 4283, 4344, 4343, 5563, 5564, 5625, 5624
3817, 4283, 4284, 4345, 4344, 5564, 5565, 5626, 5625
3818, 4284, 4285, 4346, 4345, 5565, 5566, 5627, 5626
3819, 4285, 4286, 4347, 4346, 5566, 5567, 5628, 5627
3820, 4286, 4287, 4348, 4347, 5567, 5568, 5629, 5628
3821, 4287, 4288, 4349, 4348, 5568, 5569, 5630, 5629
3822, 4288, 4289, 4350, 4349, 5569, 5570, 5631, 5630
3823, 4289, 4290, 4351, 4350, 5570, 5571, 5632, 5631
3824, 4290, 4291, 4352, 4351, 5571, 5572, 5633, 5632
3825, 4291, 4292, 4353, 4352, 5572, 5573, 5634, 5633
3826, 4292, 4293, 4354, 4353, 5573, 5574, 5635, 5634
3827, 4293, 4294, 4355, 4354, 5574, 5575, 5636, 5635
3828, 4294, 4295, 4356, 4355, 5575, 5576, 5637, 5636
3829, 4295, 4296, 4357, 4356, 5576, 5577, 5638, 5637
3830, 4296, 4297, 4358, 4357, 5577, 5578, 5639, 5638
3831, 4297, 4298, 4359, 4358, 5578, 5579, 5640, 5639
3832, 4298, 4299, 4360, 4359, 5579, 5580, 5641, 5640
3833, 4299, 4300, 4361, 4360, 5580, 5581, 5642, 5641
3834, 4300, 4301, 4362, 4361, 5581, 5582, 5643, 5642
3835, 4301, 4302, 4363, 4362, 5582, 5583, 5644, 5643
3836, 4302, 4303, 4364, 4363, 5583, 5584, 5645, 5644
3837, 4303, 4304, 4365, 4364, 5584, 5585, 5646, 5645
3838, 4304, 4305, 4366, 4365, 5585, 5586, 5647, 5646
3839, 4305, 4306, 4367, 4366, 5586, 5587, 5648, 5647
3840, 4306, 4307, 4368, 4367, 5587, 5588, 5649, 5648
3841, 4307, 4308, 4369, 4368, 5588, 5589, 5650, 5649
3842, 4308, 4309, 4370, 4369, 5589, 5590, 5651, 5650
3843, 4309, 4310, 4371, 4370, 5590, 5591, 5652, 5651
3844, 4310, 4311, 4372, 4371, 5591, 5592, 5653, 5652
3845, 4311, 4312, 4373, 4372, 5592, 5593, 5654, 5653
3846, 4312, 4313, 4374, 4373, 5593, 5594, 5655, 5654
3847, 4313, 4314, 4375, 4374, 5594, 5595, 5656, 5655
3848, 4314, 4315, 4376, 4375, 5595, 5596, 5657, 5656
3849, 4315, 4316, 4377, 4376, 5596, 5597, 5658, 5657
3850, 4316, 4317, 4378, 4377, 5597, 5598, 5659, 5658
3851, 4317, 4318, 4379, 4378, 5598, 5599, 5660, 5659
3852, 4318, 4319, 4380, 4379, 5599, 5600, 5661, 5660
3853, 4319, 4320, 4381, 4380, 5600, 5601, 5662, 5661
3854, 4320, 4321, 4382, 4381, 5601, 5602, 5663, 5662
3855, 4321, 4322, 4383, 4382, 5602, 5603, 5664, 5663
3856, 4322, 4323, 4384, 4383, 5603, 5604, 5665, 5664
3857, 4323, 4324, 4385, 4384, 5604, 5605, 5666, 5665
3858, 4324, 4325, 4386, 4385, 5605, 5606, 5667, 5666
3859, 4325, 4326, 4387, 4386, 5606, 5607, 5668, 5667
3860, 4326, 4327, 4388, 4387, 5607, 5608, 5669, 5668
3861, 4327, 4328, 4389, 4388, 5608, 5609, 5670, 5669
3862, 4328, 4329, 4390, 4389, 5609, 5610, 5671, 5670
3863, 4329, 4330, 4391, 4390, 5610, 5611, 5672, 5671
3864, 4330, 4331, 4392, 4391, 5611, 5612, 5673, 5672
3865, 4332, 4333, 4394, 4393, 5613, 5614, 5675, 5674
3866, 4333, 4334, 4395, 4394, 5614, 5615, 5676, 5675
3867, 4334, 4335, 4396, 4395, 5615, 5616, 5677, 5676
3868, 4335, 4336, 4397, 4396, 5616, 5617, 5678, 5677
3869, 4336, 4337, 4398, 4397, 5617, 5618, 5679, 5678
3870, 4337, 4338, 4399, 4398, 5618, 5619, 5680, 5679
3871, 4338, 4339, 4400, 4399, 5619, 5620, 5681, 5680
3872, 4339, 4340, 4401, 4400, 5620, 5621, 5682, 5681
3873, 4340, 4341, 4402, 4401, 5621, 5622, 5683, 5682
3874, 4341, 4342, 4403, 4402, 5622, 5623, 5684, 5683
3875, 4342, 4343, 4404, 4403, 5623, 5624, 5685, 5684
3876, 4343, 4344, 4405, 4404, 5624, 5625, 5686, 5685
3877, 4344, 4345, 4406, 4405, 5625, 5626, 5687, 5686
3878, 4345, 4346, 4407, 4406, 5626, 5627, 5688, 5687
3879, 4346, 4347, 4408, 4407, 5627, 5628, 5689, 5688
3880, 4347, 4348, 4409, 4408, 5628, 5629, 5690, 5689
3881, 4348, 4349, 4410, 4409, 5629, 5630, 5691, 5690
3882, 4349, 4350, 4411, 4410, 5630, 5631, 5692, 5691
3883, 4350, 4351, 4412, 4411, 5631, 5632, 5693, 5692
3884, 4351, 4352, 4413, 4412, 5632, 5633, 5694, 5693
3885, 4352, 4353, 4414, 4413, 5633, 5634, 5695, 5694
3886, 4353, 4354, 4415, 4414, 5634, 5635, 5696, 5695
3887, 4354, 4355, 4416, 4415, 5635, 5636, 5697, 5696
3888, 4355, 4356, 4417, 4416, 5636, 5637, 5698, 5697
3889, 4356, 4357, 4418, 4417, 5637, 5638, 5699, 5698
3890, 4357, 4358, 4419, 4418, 5638, 5639, 5700, 5699
3891, 4358, 4359, 4420, 4419, 5639, 5640, 5701, 5700
3892, 4359, 4360, 4421, 4420, 5640, 5641, 5702, 5701
3893, 4360, 4361, 4422, 4421, 5641, 5642, 5703, 5702
3894, 4361, 4362, 4423, 4422, 5642, 5643, 5704, 5703
3895, 4362, 4363, 4424, 4423, 5643, 5644, 5705, 5704
3896, 4363, 4364, 4425, 4424, 5644, 5645, 5706, 5705
3897, 4364, 4365, 4426, 4425, 5645, 5646, 5707, 5706
3898, 4365, 4366, 4427, 4426, 5646, 5647, 5708, 5707
3899, 4366, 4367, 4428, 4427, 5647, 5648, 5709, 5708
3900, 4367, 4368, 4429, 4428, 5648, 5649, 5710, 5709
3901, 4368, 4369, 4430, 4429, 5649, 5650, 5711, 5710
3902, 4369, 4370, 4431, 4430, 5650, 5651, 5712, 5711
3903, 4370, 4371, 4432, 4431, 5651, 5652, 5713, 5712
3904, 4371, 4372, 4433, 4432, 5652, 5653, 5714, 5713
3905, 4372, 4373, 4434, 4433, 5653, 5654, 5715, 5714
3906, 4373, 4374, 4435, 4434, 5654, 5655, 5716, 5715
3907, 4374, 4375, 4436, 4435, 5655, 5656, 5717, 5716
3908, 4375, 4376, 4437, 4436, 5656, 5657, 5718, 5717
3909, 4376, 4377, 4438, 4437, 5657, 5658, 5719, 5718
3910, 4377, 4378, 4439, 4438, 5658, 5659, 5720, 5719
3911, 4378, 4379, 4440, 4439, 5659, 5660, 5721, 5720
3912, 4379, 4380, 4441, 4440, 5660, 5661, 5722, 5721
3913, 4380, 4381, 4442, 4441, 5661, 5662, 5723, 5722
3914, 4381, 4382, 4443, 4442, 5662, 5663, 5724, 5723
3915, 4382, 4383, 4444, 4443, 5663, 5664, 5725, 5724
3916, 4383, 4384, 4445, 4444, 5664, 5665, 5726, 5725
3917, 4384, 4385, 4446, 4445, 5665, 5666, 5727, 5726
3918, 4385, 4386, 4447, 4446, 5666, 5667, 5728, 5727
3919, 4386, 4387, 4448, 4447, 5667, 5668, 5729, 5728
3920, 4387, 4388, 4449, 4448, 5668, 5669, 5730, 5729
3921, 4388, 4389, 4450, 4449, 5669, 5670, 5731, 5730
3922, 4389, 4390, 4451, 4450, 5670, 5671, 5732, 5731
3923, 4390, 4391, 4452, 4451, 5671, 5672, 5733, 5732
3924, 4391, 4392, 4453, 4452, 5672, 5673, 5734, 5733
3925, 4393, 4394, 4455, 4454, 5674, 5675, 5736, 5735
3926, 4394, 4395, 4456, 4455, 5675, 5676, 5737, 5736
3927, 4395, 4396, 4457, 4456, 5676, 5677, 5738, 5737
3928, 4396, 4397, 4458, 4457, 5677, 5678, 5739, 5738
3929, 4397, 4398, 4459, 4458, 5678, 5679, 5740, 5739
3930, 4398, 4399, 4460, 4459, 5679, 5680, 5741, 5740
3931, 4399, 4400, 4461, 4460, 5680, 5681, 5742, 5741
3932, 4400, 4401, 4462, 4461, 5681, 5682, 5743, 5742
3933, 4401, 4402, 4463, 4462, 5682, 5683, 5744, 5743
3934, 4402, 4403, 4464, 4463, 5683, 5684, 5745, 5744
3935, 4403, 4404, 4465, 4464, 5684, 5685, 5746, 5745
3936, 4404, 4405, 4466, 4465, 5685, 5686, 5747, 5746
3937, 4405, 4406, 4467, 4466, 5686, 5687, 5748, 5747
3938, 4406, 4407, 4468, 4467, 5687, 5688, 5749, 5748
3939, 4407, 4408, 4469, 4468, 5688, 5689, 5750, 5749
3940, 4408, 4409, 4470, 4469, 5689, 5690, 5751, 5750
3941, 4409, 4410, 4471, 4470, 5690, 5691, 5752, 5751
3942, 4410, 4411, 4472, 4471, 5691, 5692, 5753, 5752
3943, 4411, 4412, 4473, 4472, 5692, 5693, 5754, 5753
3944, 4412, 4413, 4474, 4473, 5693, 5694, 5755, 5754
3945, 4413, 4414, 4475, 4474, 5694, 5695, 5756, 5755
3946, 4414, 4415, 4476, 4475, 5695, 5696, 5757, 5756
3947, 4415, 4416, 4477, 4476, 5696, 5697, 5758, 5757
3948, 4416, 4417, 4478, 4477, 5697, 5698, 5759, 5758
3949, 4417, 4418, 4479, 4478, 5698, 5699, 5760, 5759
3950, 4418, 4419, 4480, 4479, 5699, 5700, 5761, 5760
3951, 4419, 4420, 4481, 4480, 5700, 5701, 5762, 5761
3952, 4420, 4421, 4482, 4481, 5701, 5702, 5763, 5762
3953, 4421, 4422, 4483, 4482, 5702, 5703, 5764, 5763
3954, 4422, 4423, 4484, 4483, 5703, 5704, 5765, 5764
3955, 4423, 4424, 4485, 4484, 5704, 5705, 5766, 5765
3956, 4424, 4425, 4486, 4485, 5705, 5706, 5767, 5766
3957, 4425, 4426, 4487, 4486, 5706, 5707, 5768, 5767
3958, 4426, 4427, 4488, 4487, 5707, 5708, 5769, 5768
3959, 4427, 4428, 4489, 4488, 5708, 5709, 5770, 5769
3960, 4428, 4429, 4490, 4489, 5709, 5710, 5771, 5770
3961, 4429, 4430, 4491, 4490, 5710, 5711, 5772, 5771
3962, 4430, 4431, 4492, 4491, 5711, 5712, 5773, 5772
3963, 4431, 4432, 4493, 4492, 5712, 5713, 5774, 5773
3964, 4432, 4433, 4494, 4493, 5713, 5714, 5775, 5774
3965, 4433, 4434, 4495, 4494, 5714, 5715, 5776, 5775
3966, 4434, 4435, 4496, 4495, 5715, 5716, 5777, 5776
3967, 4435, 4436, 4497, 4496, 5716, 5717, 5778, 5777
3968, 4436, 4437, 4498, 4497, 5717, 5718, 5779, 5778
3969, 4437, 4438, 4499, 4498, 5718, 5719, 5780, 5779
3970, 4438, 4439, 4500, 4499, 5719, 5720, 5781, 5780
3971, 4439, 4440, 4501, 4500, 5720, 5721, 5782, 5781
3972, 4440, 4441, 4502, 4501, 5721, 5722, 5783, 5782
3973, 4441, 4442, 4503, 4502, 5722, 5723, 5784, 5783
3974, 4442, 4443, 4504, 4503, 5723, 5724, 5785, 5784
3975, 4443, 4444, 4505, 4504, 5724, 5725, 5786, 5785
3976, 4444, 4445, 4506, 4505, 5725, 5726, 5787, 5786
3977, 4445, 4446, 4507, 4506, 5726, 5727, 5788, 5787
3978, 4446, 4447, 4508, 4507, 5727, 5728, 5789, 5788
3979, 4447, 4448, 4509, 4508, 5728, 5729, 5790, 5789
3980, 4448, 4449, 4510, 4509, 5729, 5730, 5791, 5790
3981, 4449, 4450, 4511, 4510, 5730, 5731, 5792, 5791
3982, 4450, 4451, 4512, 4511, 5731, 5732, 5793, 5792
3983, 4451, 4452, 4513, 4512, 5732, 5733, 5794, 5793
3984, 4452, 4453, 4514, 4513, 5733, 5734, 5795, 5794
3985, 4454, 4455, 4516, 4515, 5735, 5736, 5797, 5796
3986, 4455, 4456, 4517, 4516, 5736, 5737, 5798, 5797
3987, 4456, 4457, 4518, 4517, 5737, 5738, 5799, 5798
3988, 4457, 4458, 4519, 4518, 5738, 5739, 5800, 5799
3989, 4458, 4459, 4520, 4519, 5739, 5740, 5801, 5800
3990, 4459, 4460, 4521, 4520, 5740, 5741, 5802, 5801
3991, 4460, 4461, 4522, 4521, 5741, 5742, 5803, 5802
3992, 4461, 4462, 4523, 4522, 5742, 5743, 5804, 5803
3993, 4462, 4463, 4524, 4523, 5743, 5744, 5805, 5804
3994, 4463, 4464, 4525, 4524, 5744, 5745, 5806, 5805
3995, 4464, 4465, 4526, 4525, 5745, 5746, 5807, 5806
3996, 4465, 4466, 4527, 4526, 5746, 5747, 5808, 5807
3997, 4466, 4467, 4528, 4527, 5747, 5748, 5809, 5808
3998, 4467, 4468, 4529, 4528, 5748, 5749, 5810, 5809
3999, 4468, 4469, 4530, 4529, 5749, 5750, 5811, 5810
4000, 4469, 4470, 4531, 4530, 5750, 5751, 5812, 5811
4001, 4470, 4471, 4532, 4531, 5751, 5752, 5813, 5812
4002, 4471, 4472, 4533, 4532, 5752, 5753, 5814, 5813
4003, 4472, 4473, 4534, 4533, 5753, 5754, 5815, 5814
4004, 4473, 4474, 4535, 4534, 5754, 5755, 5816, 5815
4005, 4474, 4475, 4536, 4535, 5755, 5756, 5817, 5816
4006, 4475, 4476, 4537, 4536, 5756, 5757, 5818, 5817
4007, 4476, 4477, 4538, 4537, 5757, 5758, 5819, 5818
4008, 4477, 4478, 4539, 4538, 5758, 5759, 5820, 5819
4009, 4478, 4479, 4540, 4539, 5759, 5760, 5821, 5820
4010, 4479, 4480, 4541, 4540, 5760, 5761, 5822, 5821
4011, 4480, 4481, 4542, 4541, 5761, 5762, 5823, 5822
4012, 4481, 4482, 4543, 4542, 5762, 5763, 5824, 5823
4013, 4482, 4483, 4544, 4543, 5763, 5764, 5825, 5824
4014, 4483, 4484, 4545, 4544, 5764, 5765, 5826, 5825
4015, 4484, 4485, 4546, 4545, 5765, 5766, 5827, 5826
4016, 4485, 4486, 4547, 4546, 5766, 5767, 5828, 5827
4017, 4486, 4487, 4548, 4547, 5767, 5768, 5829, 5828
4018, 4487, 4488, 4549, 4548, 5768, 5769, 5830, 5829
4019, 4488, 4489, 4550, 4549, 5769, 5770, 5831, 5830
4020, 4489, 4490, 4551, 4550, 5770, 5771, 5832, 5831
4021, 4490, 4491, 4552, 4551, 5771, 5772, 5833, 5832
4022, 4491, 4492, 4553, 4552, 5772, 5773, 5834, 5833
4023, 4492, 4493, 4554, 4553, 5773, 5774, 5835, 5834
4024, 4493, 4494, 4555, 4554, 5774, 5775, 5836, 5835
4025, 4494, 4495, 4556, 4555, 5775, 5776, 5837, 5836
4026, 4495, 4496, 4557, 4556, 5776, 5777, 5838, 5837
4027, 4496, 4497, 4558, 4557, 5777, 5778, 5839, 5838
4028, 4497, 4498, 4559, 4558, 5778, 5779, 5840, 5839
4029, 4498, 4499, 4560, 4559, 5779, 5780, 5841, 5840
4030, 4499, 4500, 4561, 4560, 5780, 5781, 5842, 5841
4031, 4500, 4501, 4562, 4561, 5781, 5782, 5843, 5842
4032, 4501, 4502, 4563, 4562, 5782, 5783, 5844, 5843
4033, 4502, 4503, 4564, 4563, 5783, 5784, 5845, 5844
4034, 4503, 4504, 4565, 4564, 5784, 5785, 5846, 5845
4035, 4504, 4505, 4566, 4565, 5785, 5786, 5847, 5846
4036, 4505, 4506, 4567, 4566, 5786, 5787, 5848, 5847
4037, 4506, 4507, 4568, 4567, 5787, 5788, 5849, 5848
4038, 4507, 4508, 4569, 4568, 5788, 5789, 5850, 5849
4039, 4508, 4509, 4570, 4569, 5789, 5790, 5851, 5850
4040, 4509, 4510, 4571, 4570, 5790, 5791, 5852, 5851
4041, 4510, 4511, 4572, 4571, 5791, 5792, 5853, 5852
4042, 4511, 4512, 4573, 4572, 5792, 5793, 5854, 5853
4043, 4512, 4513, 4574, 4573, 5793, 5794, 5855, 5854
4044, 4513, 4514, 4575, 4574, 5794, 5795, 5856, 5855
4045, 4515, 4516, 4577, 4576, 5796, 5797, 5858, 5857
4046, 4516, 4517, 4578, 4577, 5797, 5798, 5859, 5858
4047, 4517, 4518, 4579, 4578, 5798, 5799, 5860, 5859
4048, 4518, 4519, 4580, 4579, 5799, 5800, 5861, 5860
4049, 4519, 4520, 4581, 4580, 5800, 5801, 5862, 5861
4050, 4520, 4521, 4582, 4581, 5801, 5802, 5863, 5862
4051, 4521, 4522, 4583, 4582, 5802, 5803, 5864, 5863
4052, 4522, 4523, 4584, 4583, 5803, 5804, 5865, 5864
4053, 4523, 4524, 4585, 4584, 5804, 5805, 5866, 5865
4054, 4524, 4525, 4586, 4585, 5805, 5806, 5867, 5866
4055, 4525, 4526, 4587, 4586, 5806, 5807, 5868, 5867
4056, 4526, 4527, 4588, 4587, 5807, 5808, 5869, 5868
4057, 4527, 4528, 4589, 4588, 5808, 5809, 5870, 5869
4058, 4528, 4529, 4590, 4589, 5809, 5810, 5871, 5870
4059, 4529, 4530, 4591, 4590, 5810, 5811, 5872, 5871
4060, 4530, 4531, 4592, 4591, 5811, 5812, 5873, 5872
4061, 4531, 4532, 4593, 4592, 5812, 5813, 5874, 5873
4062, 4532, 4533, 4594, 4593, 5813, 5814, 5875, 5874
4063, 4533, 4534, 4595, 4594, 5814, 5815, 5876, 5875
4064, 4534, 4535, 4596, 4595, 5815, 5816, 5877, 5876
4065, 4535, 4536, 4597, 4596, 5816, 5817, 5878, 5877
4066, 4536, 4537, 4598, 4597, 5817, 5818, 5879, 5878
4067, 4537, 4538, 4599, 4598, 5818, 5819, 5880, 5879
4068, 4538, 4539, 4600, 4599, 5819, 5820, 5881, 5880
4069, 4539, 4540, 4601, 4600, 5820, 5821, 5882, 5881
4070, 4540, 4541, 4602, 4601, 5821, 5822, 5883, 5882
4071, 4541, 4542, 4603, 4602, 5822, 5823, 5884, 5883
4072, 4542, 4543, 4604, 4603, 5823, 5824, 5885, 5884
4073, 4543, 4544, 4605, 4604, 5824, 5825, 5886, 5885
4074, 4544, 4545, 4606, 4605, 5825, 5826, 5887, 5886
4075, 4545, 4546, 4607, 4606, 5826, 5827, 5888, 5887
4076, 4546, 4547, 4608, 4607, 5827, 5828, 5889, 5888
4077, 4547, 4548, 4609, 4608, 5828, 5829, 5890, 5889
4078, 4548, 4549, 4610, 4609, 5829, 5830, 5891, 5890
4079, 4549, 4550, 4611, 4610, 5830, 5831, 5892, 5891
4080, 4550, 4551, 4612, 4611, 5831, 5832, 5893, 5892
4081, 4551, 4552, 4613, 4612, 5832, 5833, 5894, 5893
4082, 4552, 4553, 4614, 4613, 5833, 5834, 5895, 5894
4083, 4553, 4554, 4615, 4614, 5834, 5835, 5896, 5895
4084, 4554, 4555, 4616, 4615, 5835, 5836, 5897, 5896
4085, 4555, 4556, 4617, 4616, 5836, 5837, 5898, 5897
4086, 4556, 4557, 4618, 4617, 5837, 5838, 5899, 5898
4087, 4557, 4558, 4619, 4618, 5838, 5839, 5900, 5899
4088, 4558, 4559, 4620, 4619, 5839, 5840, 5901, 5900
4089, 4559, 4560, 4621, 4620, 5840, 5841, 5902, 5901
4090, 4560, 4561, 4622, 4621, 5841, 5842, 5903, 5902
4091, 4561, 4562, 4623, 4622, 5842, 5843, 5904, 5903
4092, 4562, 4563, 4624, 4623, 5843, 5844, 5905, 5904
4093, 4563, 4564, 4625, 4624, 5844, 5845, 5906, 5905
4094, 4564, 4565, 4626, 4625, 5845, 5846, 5907, 5906
4095, 4565, 4566, 4627, 4626, 5846, 5847, 5908, 5907
4096, 4566, 4567, 4628, 4627, 5847, 5848, 5909, 5908
4097, 4567, 4568, 4629, 4628, 5848, 5849, 5910, 5909
4098, 4568, 4569, 4630, 4629, 5849, 5850, 5911, 5910
4099, 4569, 4570, 4631, 4630, 5850, 5851, 5912, 5911
4100, 4570, 4571, 4632, 4631, 5851, 5852, 5913, 5912
4101, 4571, 4572, 4633, 4632, 5852, 5853, 5914, 5913
4102, 4572, 4573, 4634, 4633, 5853, 5854, 5915, 5914
4103, 4573, 4574, 4635, 4634, 5854, 5855, 5916, 5915
4104, 4574, 4575, 4636, 4635, 5855, 5856, 5917, 5916
4105, 4576, 4577, 4638, 4637, 5857, 5858, 5919, 5918
4106, 4577, 4578, 4639, 4638, 5858, 5859, 5920, 5919
4107, 4578, 4579, 4640, 4639, 5859, 5860, 5921, 5920
4108, 4579, 4580, 4641, 4640, 5860, 5861, 5922, 5921
4109, 4580, 4581, 4642, 4641, 5861, 5862, 5923, 5922
4110, 4581, 4582, 4643, 4642, 5862, 5863, 5924, 5923
4111, 4582, 4583, 4644, 4643, 5863, 5864, 5925, 5924
4112, 4583, 4584, 4645, 4644, 5864, 5865, 5926, 5925
4113, 4584, 4585, 4646, 4645, 5865, 5866, 5927, 5926
4114, 4585, 4586, 4647, 4646, 5866, 5867, 5928, 5927
4115, 4586, 4587, 4648, 4647, 5867, 5868, 5929, 5928
4116, 4587, 4588, 4649, 4648, 5868, 5869, 5930, 5929
4117, 4588, 4589, 4650, 4649, 5869, 5870, 5931, 5930
4118, 4589, 4590, 4651, 4650, 5870, 5871, 5932, 5931
4119, 4590, 4591, 4652, 4651, 5871, 5872, 5933, 5932
4120, 4591, 4592, 4653, 4652, 5872, 5873, 5934, 5933
4121, 4592, 4593, 4654, 4653, 5873, 5874, 5935, 5934
4122, 4593, 4594, 4655, 4654, 5874, 5875, 5936, 5935
4123, 4594, 4595, 4656, 4655, 5875, 5876, 5937, 5936
4124, 4595, 4596, 4657, 4656, 5876, 5877, 5938, 5937
4125, 4596, 4597, 4658, 4657, 5877, 5878, 5939, 5938
4126, 4597, 4598, 4659, 4658, 5878, 5879, 5940, 5939
4127, 4598, 4599, 4660, 4659, 5879, 5880, 5941, 5940
4128, 4599, 4600, 4661, 4660, 5880, 5881, 5942, 5941
4129, 4600, 4601, 4662, 4661, 5881, 5882, 5943, 5942
4130, 4601, 4602, 4663, 4662, 5882, 5883, 5944, 5943
4131, 4602, 4603, 4664, 4663, 5883, 5884, 5945, 5944
4132, 4603, 4604, 4665, 4664, 5884, 5885, 5946, 5945
4133, 4604, 4605, 4666, 4665, 5885, 5886, 5947, 5946
4134, 4605, 4606, 4667, 4666, 5886, 5887, 5948, 5947
4135, 4606, 4607, 4668, 4667, 5887, 5888, 5949, 5948
4136, 4607, 4608, 4669, 4668, 5888, 5889, 5950, 5949
4137, 4608, 4609, 4670, 4669, 5889, 5890, 5951, 5950
4138, 4609, 4610, 4671, 4670, 5890, 5891, 5952, 5951
4139, 4610, 4611, 4672, 4671, 5891, 5892, 5953, 5952
4140, 4611, 4612, 4673, 4672, 5892, 5893, 5954, 5953
4141, 4612, 4613, 4674, 4673, 5893, 5894, 5955, 5954
4142, 4613, 4614, 4675, 4674, 5894, 5895, 5956, 5955
4143, 4614, 4615, 4676, 4675, 5895, 5896, 5957, 5956
4144, 4615, 4616, 4677, 4676, 5896, 5897, 5958, 5957
4145, 4616, 4617, 4678, 4677, 5897, 5898, 5959, 5958
4146, 4617, 4618, 4679, 4678, 5898, 5899, 5960, 5959
4147, 4618, 4619, 4680, 4679, 5899, 5900, 5961, 5960
4148, 4619, 4620, 4681, 4680, 5900, 5901, 5962, 5961
4149, 4620, 4621, 4682, 4681, 5901, 5902, 5963, 5962
4150, 4621, 4622, 4683, 4682, 5902, 5903, 5964, 5963
4151, 4622, 4623, 4684, 4683, 5903, 5904, 5965, 5964
4152, 4623, 4624, 4685, 4684, 5904, 5905, 5966, 5965
4153, 4624, 4625, 4686, 4685, 5905, 5906, 5967, 5966
4154, 4625, 4626, 4687, 4686, 5906, 5907, 5968, 5967
4155, 4626, 4627, 4688, 4687, 5907, 5908, 5969, 5968
4156, 4627, 4628, 4689, 4688, 5908, 5909, 5970, 5969
4157, 4628, 4629, 4690, 4689, 5909, 5910, 5971, 5970
4158, 4629, 4630, 4691, 4690, 5910, 5911, 5972, 5971
4159, 4630, 4631, 4692, 4691, 5911, 5912, 5973, 5972
4160, 4631, 4632, 4693, 4692, 5912, 5913, 5974, 5973
4161, 4632, 4633, 4694, 4693, 5913, 5914, 5975, 5974
4162, 4633, 4634, 4695, 4694, 5914, 5915, 5976, 5975
4163, 4634, 4635, 4696, 4695, 5915, 5916, 5977, 5976
4164, 4635, 4636, 4697, 4696, 5916, 5917, 5978, 5977
4165, 4637, 4638, 4699, 4698, 5918, 5919, 5980, 5979
4166, 4638, 4639, 4700, 4699, 5919, 5920, 5981, 5980
4167, 4639, 4640, 4701, 4700, 5920, 5921, 5982, 5981
4168, 4640, 4641, 4702, 4701, 5921, 5922, 5983, 5982
4169, 4641, 4642, 4703, 4702, 5922, 5923, 5984, 5983
4170, 4642, 4643, 4704, 4703, 5923, 5924, 5985, 5984
4171, 4643, 4644, 4705, 4704, 5924, 5925, 5986, 5985
4172, 4644, 4645, 4706, 4705, 5925, 5926, 5987, 5986
4173, 4645, 4646, 4707, 4706, 5926, 5927, 5988, 5987
4174, 4646, 4647, 4708, 4707, 5927, 5928, 5989, 5988
4175, 4647, 4648, 4709, 4708, 5928, 5929, 5990, 5989
4176, 4648, 4649, 4710, 4709, 5929, 5930, 5991, 5990
4177, 4649, 4650, 4711, 4710, 5930, 5931, 5992, 5991
4178, 4650, 4651, 4712, 4711, 5931, 5932, 5993, 5992
4179, 4651, 4652, 4713, 4712, 5932, 5933, 5994, 5993
4180, 4652, 4653, 4714, 4713, 5933, 5934, 5995, 5994
4181, 4653, 4654, 4715, 4714, 5934, 5935, 5996, 5995
4182, 4654, 4655, 4716, 4715, 5935, 5936, 5997, 5996
4183, 4655, 4656, 4717, 4716, 5936, 5937, 5998, 5997
4184, 4656, 4657, 4718, 4717, 5937, 5938, 5999, 5998
4185, 4657, 4658, 4719, 4718, 5938, 5939, 6000, 5999
4186, 4658, 4659, 4720, 4719, 5939, 5940, 6001, 6000
4187, 4659, 4660, 4721, 4720, 5940, 5941, 6002, 6001
4188, 4660, 4661, 4722, 4721, 5941, 5942, 6003, 6002
4189, 4661, 4662, 4723, 4722, 5942, 5943, 6004, 6003
4190, 4662, 4663, 4724, 4723, 5943, 5944, 6005, 6004
4191, 4663, 4664, 4725, 4724, 5944, 5945, 6006, 6005
4192, 4664, 4665, 4726, 4725, 5945, 5946, 6007, 6006
4193, 4665, 4666, 4727, 4726, 5946, 5947, 6008, 6007
4194, 4666, 4667, 4728, 4727, 5947, 5948, 6009, 6008
4195, 4667, 4668, 4729, 4728, 5948, 5949, 6010, 6009
4196, 4668, 4669, 4730, 4729, 5949, 5950, 6011, 6010
4197, 4669, 4670, 4731, 4730, 5950, 5951, 6012, 6011
4198, 4670, 4671, 4732, 4731, 5951, 5952, 6013, 6012
4199, 4671, 4672, 4733, 4732, 5952, 5953, 6014, 6013
4200, 4672, 4673, 4734, 4733, 5953, 5954, 6015, 6014
4201, 4673, 4674, 4735, 4734, 5954, 5955, 6016, 6015
4202, 4674, 4675, 4736, 4735, 5955, 5956, 6017, 6016
4203, 4675, 4676, 4737, 4736, 5956, 5957, 6018, 6017
4204, 4676, 4677, 4738, 4737, 5957, 5958, 6019, 6018
4205, 4677, 4678, 4739, 4738, 5958, 5959, 6020, 6019
4206, 4678, 4679, 4740, 4739, 5959, 5960, 6021, 6020
4207, 4679, 4680, 4741, 4740, 5960, 5961, 6022, 6021
4208, 4680, 4681, 4742, 4741, 5961, 5962, 6023, 6022
4209, 4681, 4682, 4743, 4742, 5962, 5963, 6024, 6023
4210, 4682, 4683, 4744, 4743, 5963, 5964, 6025, 6024
4211, 4683, 4684, 4745, 4744, 5964, 5965, 6026, 6025
4212, 4684, 4685, 4746, 4745, 5965, 5966, 6027, 6026
4213, 4685, 4686, 4747, 4746, 5966, 5967, 6028, 6027
4214, 4686, 4687, 4748, 4747, 5967, 5968, 6029, 6028
4215, 4687, 4688, 4749, 4748, 5968, 5969, 6030, 6029
4216, 4688, 4689, 4750, 4749, 5969, 5970, 6031, 6030
4217, 4689, 4690, 4751, 4750, 5970, 5971, 6032, 6031
4218, 4690, 4691, 4752, 4751, 5971, 5972, 6033, 6032
4219, 4691, 4692, 4753, 4752, 5972, 5973, 6034, 6033
4220, 4692, 4693, 4754, 4753, 5973, 5974, 6035, 6034
4221, 4693, 4694, 4755, 4754, 5974, 5975, 6036, 6035
4222, 4694, 4695, 4756, 4755, 5975, 5976, 6037, 6036
4223, 4695, 4696, 4757, 4756, 5976, 5977, 6038, 6037
4224, 4696, 4697, 4758, 4757, 5977, 5978, 6039, 6038
4225, 4698, 4699, 4760, 4759, 5979, 5980, 6041, 6040
4226, 4699, 4700, 4761, 4760, 5980, 5981, 6042, 6041
4227, 4700, 4701, 4762, 4761, 5981, 5982, 6043, 6042
4228, 4701, 4702, 4763, 4762, 5982, 5983, 6044, 6043
4229, 4702, 4703, 4764, 4763, 5983, 5984, 6045, 6044
4230, 4703, 4704, 4765, 4764, 5984, 5985, 6046, 6045
4231, 4704, 4705, 4766, 4765, 5985, 5986, 6047, 6046
4232, 4705, 4706, 4767, 4766, 5986, 5987, 6048, 6047
4233, 4706, 4707, 4768, 4767, 5987, 5988, 6049, 6048
4234, 4707, 4708, 4769, 4768, 5988, 5989, 6050, 6049
4235, 4708, 4709, 4770, 4769, 5989, 5990, 6051, 6050
4236, 4709, 4710, 4771, 4770, 5990, 5991, 6052, 6051
4237, 4710, 4711, 4772, 4771, 5991, 5992, 6053, 6052
4238, 4711, 4712, 4773, 4772, 5992, 5993, 6054, 6053
4239, 4712, 4713, 4774, 4773, 5993, 5994, 6055, 6054
4240, 4713, 4714, 4775, 4774, 5994, 5995, 6056, 6055
4241, 4714, 4715, 4776, 4775, 5995, 5996, 6057, 6056
4242, 4715, 4716, 4777, 4776, 5996, 5997, 6058, 6057
4243, 4716, 4717, 4778, 4777, 5997, 5998, 6059, 6058
4244, 4717, 4718, 4779, 4778, 5998, 5999, 6060, 6059
4245, 4718, 4719, 4780, 4779, 5999, 6000, 6061, 6060
4246, 4719, 4720, 4781, 4780, 6000, 6001, 6062, 6061
4247, 4720, 4721, 4782, 4781, 6001, 6002, 6063, 6062
4248, 4721, 4722, 4783, 4782, 6002, 6003, 6064, 6063
4249, 4734, 4735, 4796, 4795, 6015, 6016, 6077, 6076
4250, 4735, 4736, 4797, 4796, 6016, 6017, 6078, 6077
4251, 4736, 4737, 4798, 4797, 6017, 6018, 6079, 6078
4252, 4737, 4738, 4799, 4798, 6018, 6019, 6080, 6079
4253, 4738, 4739, 4800, 4799, 6019, 6020, 6081, 6080
4254, 4739, 4740, 4801, 4800, 6020, 6021, 6082, 6081
4255, 4740, 4741, 4802, 4801, 6021, 6022, 6083, 6082
4256, 4741, 4742, 4803, 4802, 6022, 6023, 6084, 6083
4257, 4742, 4743, 4804, 4803, 6023, 6024, 6085, 6084
4258, 4743, 4744, 4805, 4804, 6024, 6025, 6086, 6085
4259, 4744, 4745, 4806, 4805, 6025, 6026, 6087, 6086
4260, 4745, 4746, 4807, 4806, 6026, 6027, 6088, 6087
4261, 4746, 4747, 4808, 4807, 6027, 6028, 6089, 6088
4262, 4747, 4748, 4809, 4808, 6028, 6029, 6090, 6089
4263, 4748, 4749, 4810, 4809, 6029, 6030, 6091, 6090
4264, 4749, 4750, 4811, 4810, 6030, 6031, 6092, 6091
4265, 4750, 4751, 4812, 4811, 6031, 6032, 6093, 6092
4266, 4751, 4752, 4813, 4812, 6032, 6033, 6094, 6093
4267, 4752, 4753, 4814, 4813, 6033, 6034, 6095, 6094
4268, 4753, 4754, 4815, 4814, 6034, 6035, 6096, 6095
4269, 4754, 4755, 4816, 4815, 6035, 6036, 6097, 6096
4270, 4755, 4756, 4817, 4816, 6036, 6037, 6098, 6097
4271, 4756, 4757, 4818, 4817, 6037, 6038, 6099, 6098
4272, 4757, 4758, 4819, 4818, 6038, 6039, 6100, 6099
4273, 4759, 4760, 4821, 4820, 6040, 6041, 6102, 6101
4274, 4760, 4761, 4822, 4821, 6041, 6042, 6103, 6102
4275, 4761, 4762, 4823, 4822, 6042, 6043, 6104, 6103
4276, 4762, 4763, 4824, 4823, 6043, 6044, 6105, 6104
4277, 4763, 4764, 4825, 4824, 6044, 6045, 6106, 6105
4278, 4764, 4765, 4826, 4825, 6045, 6046, 6107, 6106
4279, 4765, 4766, 4827, 4826, 6046, 6047, 6108, 6107
4280, 4766, 4767, 4828, 4827, 6047, 6048, 6109, 6108
4281, 4767, 4768, 4829, 4828, 6048, 6049, 6110, 6109
4282, 4768, 4769, 4830, 4829, 6049, 6050, 6111, 6110
4283, 4769, 4770, 4831, 4830, 6050, 6051, 6112, 6111
4284, 4770, 4771, 4832, 4831, 6051, 6052, 6113, 6112
4285, 4771, 4772, 4833, 4832, 6052, 6053, 6114, 6113
4286, 4772, 4773, 4834, 4833, 6053, 6054, 6115, 6114
4287, 4773, 4774, 4835, 4834, 6054, 6055, 6116, 6115
4288, 4774, 4775, 4836, 4835, 6055, 6056, 6117, 6116
4289, 4775, 4776, 4837, 4836, 6056, 6057, 6118, 6117
4290, 4776, 4777, 4838, 4837, 6057, 6058, 6119, 6118
4291, 4777, 4778, 4839, 4838, 6058, 6059, 6120, 6119
4292, 4778, 4779, 4840, 4839, 6059, 6060, 6121, 6120
4293, 4779, 4780, 4841, 4840, 6060, 6061, 6122, 6121
4294, 4780, 4781, 4842, 4841, 6061, 6062, 6123, 6122
4295, 4781, 4782, 4843, 4842, 6062, 6063, 6124, 6123
4296, 4782, 4783, 4844, 4843, 6063, 6064, 6125, 6124
4297, 4795, 4796, 4857, 4856, 6076, 6077, 6138, 6137
4298, 4796, 4797, 4858, 4857, 6077, 6078, 6139, 6138
4299, 4797, 4798, 4859, 4858, 6078, 6079, 6140, 6139
4300, 4798, 4799, 4860, 4859, 6079, 6080, 6141, 6140
4301, 4799, 4800, 4861, 4860, 6080, 6081, 6142, 6141
4302, 4800, 4801, 4862, 4861, 6081, 6082, 6143, 6142
4303, 4801, 4802, 4863, 4862, 6082, 6083, 6144, 6143
4304, 4802, 4803, 4864, 4863, 6083, 6084, 6145, 6144
4305, 4803, 4804, 4865, 4864, 6084, 6085, 6146, 6145
4306, 4804, 4805, 4866, 4865, 6085, 6086, 6147, 6146
4307, 4805, 4806, 4867, 4866, 6086, 6087, 6148, 6147
4308, 4806, 4807, 4868, 4867, 6087, 6088, 6149, 6148
4309, 4807, 4808, 4869, 4868, 6088, 6089, 6150, 6149
4310, 4808, 4809, 4870, 4869, 6089, 6090, 6151, 6150
4311, 4809, 4810, 4871, 4870, 6090, 6091, 6152, 6151
4312, 4810, 4811, 4872, 4871, 6091, 6092, 6153, 6152
4313, 4811, 4812, 4873, 4872, 6092, 6093, 6154, 6153
4314, 4812, 4813, 4874, 4873, 6093, 6094, 6155, 6154
4315, 4813, 4814, 4875, 4874, 6094, 6095, 6156, 6155
4316, 4814, 4815, 4876, 4875, 6095, 6096, 6157, 6156
4317, 4815, 4816, 4877, 4876, 6096, 6097, 6158, 6157
4318, 4816, 4817, 4878, 4877, 6097, 6098, 6159, 6158
4319, 4817, 4818, 4879, 4878, 6098, 6099, 6160, 6159
4320, 4818, 4819, 4880, 4879, 6099, 6100, 6161, 6160
4321, 4820, 4821, 4882, 4881, 6101, 6102, 6163, 6162
4322, 4821, 4822, 4883, 4882, 6102, 6103, 6164, 6163
4323, 4822, 4823, 4884, 4883, 6103, 6104, 6165, 6164
4324, 4823, 4824, 4885, 4884, 6104, 6105, 6166, 6165
4325, 4824, 4825, 4886, 4885, 6105, 6106, 6167, 6166
4326, 4825, 4826, 4887, 4886, 6106, 6107, 6168, 6167
4327, 4826, 4827, 4888, 4887, 6107, 6108, 6169, 6168
4328, 4827, 4828, 4889, 4888, 6108, 6109, 6170, 6169
4329, 4828, 4829, 4890, 4889, 6109, 6110, 6171, 6170
4330, 4829, 4830, 4891, 4890, 6110, 6111, 6172, 6171
4331, 4830, 4831, 4892, 4891, 6111, 6112, 6173, 6172
4332, 4831, 4832, 4893, 4892, 6112, 6113, 6174, 6173
4333, 4832, 4833, 4894, 4893, 6113, 6114, 6175, 6174
4334, 4833, 4834, 4895, 4894, 6114, 6115, 6176, 6175
4335, 4834, 4835, 4896, 4895, 6115, 6116, 6177, 6176
4336, 4835, 4836, 4897, 4896, 6116, 6117, 6178, 6177
4337, 4836, 4837, 4898, 4897, 6117, 6118, 6179, 6178
4338, 4837, 4838, 4899, 4898, 6118, 6119, 6180, 6179
4339, 4838, 4839, 4900, 4899, 6119, 6120, 6181, 6180
4340, 4839, 4840, 4901, 4900, 6120, 6121, 6182, 6181
4341, 4840, 4841, 4902, 4901, 6121, 6122, 6183, 6182
4342, 4841, 4842, 4903, 4902, 6122, 6123, 6184, 6183
4343, 4842, 4843, 4904, 4903, 6123, 6124, 6185, 6184
4344, 4843, 4844, 4905, 4904, 6124, 6125, 6186, 6185
4345, 4856, 4857, 4918, 4917, 6137, 6138, 6199, 6198
4346, 4857, 4858, 4919, 4918, 6138, 6139, 6200, 6199
4347, 4858, 4859, 4920, 4919, 6139, 6140, 6201, 6200
4348, 4859, 4860, 4921, 4920, 6140, 6141, 6202, 6201
4349, 4860, 4861, 4922, 4921, 6141, 6142, 6203, 6202
4350, 4861, 4862, 4923, 4922, 6142, 6143, 6204, 6203
4351, 4862, 4863, 4924, 4923, 6143, 6144, 6205, 6204
4352, 4863, 4864, 4925, 4924, 6144, 6145, 6206, 6205
4353, 4864, 4865, 4926, 4925, 6145, 6146, 6207, 6206
4354, 4865, 4866, 4927, 4926, 6146, 6147, 6208, 6207
4355, 4866, 4867, 4928, 4927, 6147, 6148, 6209, 6208
4356, 4867, 4868, 4929, 4928, 6148, 6149, 6210, 6209
4357, 4868, 4869, 4930, 4929, 6149, 6150, 6211, 6210
4358, 4869, 4870, 4931, 4930, 6150, 6151, 6212, 6211
4359, 4870, 4871, 4932, 4931, 6151, 6152, 6213, 6212
4360, 4871, 4872, 4933, 4932, 6152, 6153, 6214, 6213
4361, 4872, 4873, 4934, 4933, 6153, 6154, 6215, 6214
4362, 4873, 4874, 4935, 4934, 6154, 6155, 6216, 6215
4363, 4874, 4875, 4936, 4935, 6155, 6156, 6217, 6216
4364, 4875, 4876, 4937, 4936, 6156, 6157, 6218, 6217
4365, 4876, 4877, 4938, 4937, 6157, 6158, 6219, 6218
4366, 4877, 4878, 4939, 4938, 6158, 6159, 6220, 6219
4367, 4878, 4879, 4940, 4939, 6159, 6160, 6221, 6220
4368, 4879, 4880, 4941, 4940, 6160, 6161, 6222, 6221
4369, 4881, 4882, 4943, 4942, 6162, 6163, 6224, 6223
4370, 4882, 4883, 4944, 4943, 6163, 6164, 6225, 6224
4371, 4883, 4884, 4945, 4944, 6164, 6165, 6226, 6225
4372, 4884, 4885, 4946, 4945, 6165, 6166, 6227, 6226
4373, 4885, 4886, 4947, 4946, 6166, 6167, 6228, 6227
4374, 4886, 4887, 4948, 4947, 6167, 6168, 6229, 6228
4375, 4887, 4888, 4949, 4948, 6168, 6169, 6230, 6229
4376, 4888, 4889, 4950, 4949, 6169, 6170, 6231, 6230
4377, 4889, 4890, 4951, 4950, 6170, 6171, 6232, 6231
4378, 4890, 4891, 4952, 4951, 6171, 6172, 6233, 6232
4379, 4891, 4892, 4953, 4952, 6172, 6173, 6234, 6233
4380, 4892, 4893, 4954, 4953, 6173, 6174, 6235, 6234
4381, 4893, 4894, 4955, 4954, 6174, 6175, 6236, 6235
4382, 4894, 4895, 4956, 4955, 6175, 6176, 6237, 6236
4383, 4895, 4896, 4957, 4956, 6176, 6177, 6238, 6237
4384, 4896, 4897, 4958, 4957, 6177, 6178, 6239, 6238
4385, 4897, 4898, 4959, 4958, 6178, 6179, 6240, 6239
4386, 4898, 4899, 4960, 4959, 6179, 6180, 6241, 6240
4387, 4899, 4900, 4961, 4960, 6180, 6181, 6242, 6241
4388, 4900, 4901, 4962, 4961, 6181, 6182, 6243, 6242
4389, 4901, 4902, 4963, 4962, 6182, 6183, 6244, 6243
4390, 4902, 4903, 4964, 4963, 6183, 6184, 6245, 6244
4391, 4903, 4904, 4965, 4964, 6184, 6185, 6246, 6245
4392, 4904, 4905, 4966, 4965, 6185, 6186, 6247, 6246
4393, 4917, 4918, 4979, 4978, 6198, 6199, 6260, 6259
4394, 4918, 4919, 4980, 4979, 6199, 6200, 6261, 6260
4395, 4919, 4920, 4981, 4980, 6200, 6201, 6262, 6261
4396, 4920, 4921, 4982, 4981, 6201, 6202, 6263, 6262
4397, 4921, 4922, 4983, 4982, 6202, 6203, 6264, 6263
4398, 4922, 4923, 4984, 4983, 6203, 6204, 6265, 6264
4399, 4923, 4924, 4985, 4984, 6204, 6205, 6266, 6265
4400, 4924, 4925, 4986, 4985, 6205, 6206, 6267, 6266
4401, 4925, 4926, 4987, 4986, 6206, 6207, 6268, 6267
4402, 4926, 4927, 4988, 4987, 6207, 6208, 6269, 6268
4403, 4927, 4928, 4989, 4988, 6208, 6209, 6270, 6269
4404, 4928, 4929, 4990, 4989, 6209, 6210, 6271, 6270
4405, 4929, 4930, 4991, 4990, 6210, 6211, 6272, 6271
4406, 4930, 4931, 4992, 4991, 6211, 6212, 6273, 6272
4407, 4931, 4932, 4993, 4992, 6212, 6213, 6274, 6273
4408, 4932, 4933, 4994, 4993, 6213, 6214, 6275, 6274
4409, 4933, 4934, 4995, 4994, 6214, 6215, 6276, 6275
4410, 4934, 4935, 4996, 4995, 6215, 6216, 6277, 6276
4411, 4935, 4936, 4997, 4996, 6216, 6217, 6278, 6277
4412, 4936, 4937, 4998, 4997, 6217, 6218, 6279, 6278
4413, 4937, 4938, 4999, 4998, 6218, 6219, 6280, 6279
4414, 4938, 4939, 5000, 4999, 6219, 6220, 6281, 6280
4415, 4939, 4940, 5001, 5000, 6220, 6221, 6282, 6281
4416, 4940, 4941, 5002, 5001, 6221, 6222, 6283, 6282
4417, 4942, 4943, 5004, 5003, 6223, 6224, 6285, 6284
4418, 4943, 4944, 5005, 5004, 6224, 6225, 6286, 6285
4419, 4944, 4945, 5006, 5005, 6225, 6226, 6287, 6286
4420, 4945, 4946, 5007, 5006, 6226, 6227, 6288, 6287
4421, 4946, 4947, 5008, 5007, 6227, 6228, 6289, 6288
4422, 4947, 4948, 5009, 5008, 6228, 6229, 6290, 6289
4423, 4948, 4949, 5010, 5009, 6229, 6230, 6291, 6290
4424, 4949, 4950, 5011, 5010, 6230, 6231, 6292, 6291
4425, 4950, 4951, 5012, 5011, 6231, 6232, 6293, 6292
4426, 4951, 4952, 5013, 5012, 6232, 6233, 6294, 6293
4427, 4952, 4953, 5014, 5013, 6233, 6234, 6295, 6294
4428, 4953, 4954, 5015, 5014, 6234, 6235, 6296, 6295
4429, 4954, 4955, 5016, 5015, 6235, 6236, 6297, 6296
4430, 4955, 4956, 5017, 5016, 6236, 6237, 6298, 6297
4431, 4956, 4957, 5018, 5017, 6237, 6238, 6299, 6298
4432, 4957, 4958, 5019, 5018, 6238, 6239, 6300, 6299
4433, 4958, 4959, 5020, 5019, 6239, 6240, 6301, 6300
4434, 4959, 4960, 5021, 5020, 6240, 6241, 6302, 6301
4435, 4960, 4961, 5022, 5021, 6241, 6242, 6303, 6302
4436, 4961, 4962, 5023, 5022, 6242, 6243, 6304, 6303
4437, 4962, 4963, 5024, 5023, 6243, 6244, 6305, 6304
4438, 4963, 4964, 5025, 5024, 6244, 6245, 6306, 6305
4439, 4964, 4965, 5026, 5025, 6245, 6246, 6307, 6306
4440, 4965, 4966, 5027, 5026, 6246, 6247, 6308, 6307
4441, 4978, 4979, 5040, 5039, 6259, 6260, 6321, 6320
4442, 4979, 4980, 5041, 5040, 6260, 6261, 6322, 6321
4443, 4980, 4981, 5042, 5041, 6261, 6262, 6323, 6322
4444, 4981, 4982, 5043, 5042, 6262, 6263, 6324, 6323
4445, 4982, 4983, 5044, 5043, 6263, 6264, 6325, 6324
4446, 4983, 4984, 5045, 5044, 6264, 6265, 6326, 6325
4447, 4984, 4985, 5046, 5045, 6265, 6266, 6327, 6326
4448, 4985, 4986, 5047, 5046, 6266, 6267, 6328, 6327
4449, 4986, 4987, 5048, 5047, 6267, 6268, 6329, 6328
4450, 4987, 4988, 5049, 5048, 6268, 6269, 6330, 6329
4451, 4988, 4989, 5050, 5049, 6269, 6270, 6331, 6330
4452, 4989, 4990, 5051, 5050, 6270, 6271, 6332, 6331
4453, 4990, 4991, 5052, 5051, 6271, 6272, 6333, 6332
4454, 4991, 4992, 5053, 5052, 6272, 6273, 6334, 6333
4455, 4992, 4993, 5054, 5053, 6273, 6274, 6335, 6334
4456, 4993, 4994, 5055, 5054, 6274, 6275, 6336, 6335
4457, 4994, 4995, 5056, 5055, 6275, 6276, 6337, 6336
4458, 4995, 4996, 5057, 5056, 6276, 6277, 6338, 6337
4459, 4996, 4997, 5058, 5057, 6277, 6278, 6339, 6338
4460, 4997, 4998, 5059, 5058, 6278, 6279, 6340, 6339
4461, 4998, 4999, 5060, 5059, 6279, 6280, 6341, 6340
4462, 4999, 5000, 5061, 5060, 6280, 6281, 6342, 6341
4463, 5000, 5001, 5062, 5061, 6281, 6282, 6343, 6342
4464, 5001, 5002, 5063, 5062, 6282, 6283, 6344, 6343
4465, 5003, 5004, 5065, 5064, 6284, 6285, 6346, 6345
4466, 5004, 5005, 5066, 5065, 6285, 6286, 6347, 6346
4467, 5005, 5006, 5067, 5066, 6286, 6287, 6348, 6347
4468, 5006, 5007, 5068, 5067, 6287, 6288, 6349, 6348
4469, 5007, 5008, 5069, 5068, 6288, 6289, 6350, 6349
4470, 5008, 5009, 5070, 5069, 6289, 6290, 6351, 6350
4471, 5009, 5010, 5071, 5070, 6290, 6291, 6352, 6351
4472, 5010, 5011, 5072, 5071, 6291, 6292, 6353, 6352
4473, 5011, 5012, 5073, 5072, 6292, 6293, 6354, 6353
4474, 5012, 5013, 5074, 5073, 6293, 6294, 6355, 6354
4475, 5013, 5014, 5075, 5074, 6294, 6295, 6356, 6355
4476, 5014, 5015, 5076, 5075, 6295, 6296, 6357, 6356
4477, 5015, 5016, 5077, 5076, 6296, 6297, 6358, 6357
4478, 5016, 5017, 5078, 5077, 6297, 6298, 6359, 6358
4479, 5017, 5018, 5079, 5078, 6298, 6299, 6360, 6359
4480, 5018, 5019, 5080, 5079, 6299, 6300, 6361, 6360
4481, 5019, 5020, 5081, 5080, 6300, 6301, 6362, 6361
4482, 5020, 5021, 5082, 5081, 6301, 6302, 6363, 6362
4483, 5021, 5022, 5083, 5082, 6302, 6303, 6364, 6363
4484, 5022, 5023, 5084, 5083, 6303, 6304, 6365, 6364
4485, 5023, 5024, 5085, 5084, 6304, 6305, 6366, 6365
4486, 5024, 5025, 5086, 5085, 6305, 6306, 6367, 6366
4487, 5025, 5026, 5087, 5086, 6306, 6307, 6368, 6367
4488, 5026, 5027, 5088, 5087, 6307, 6308, 6369, 6368
4489, 5039, 5040, 5101, 5100, 6320, 6321, 6382, 6381
4490, 5040, 5041, 5102, 5101, 6321, 6322, 6383, 6382
4491, 5041, 5042, 5103, 5102, 6322, 6323, 6384, 6383
4492, 5042, 5043, 5104, 5103, 6323, 6324, 6385, 6384
4493, 5043, 5044, 5105, 5104, 6324, 6325, 6386, 6385
4494, 5044, 5045, 5106, 5105, 6325, 6326, 6387, 6386
4495, 5045, 5046, 5107, 5106, 6326, 6327, 6388, 6387
4496, 5046, 5047, 5108, 5107, 6327, 6328, 6389, 6388
4497, 5047, 5048, 5109, 5108, 6328, 6329, 6390, 6389
4498, 5048, 5049, 5110, 5109, 6329, 6330, 6391, 6390
4499, 5049, 5050, 5111, 5110, 6330, 6331, 6392, 6391
4500, 5050, 5051, 5112, 5111, 6331, 6332, 6393, 6392
4501, 5051, 5052, 5113, 5112, 6332, 6333, 6394, 6393
4502, 5052, 5053, 5114, 5113, 6333, 6334, 6395, 6394
4503, 5053, 5054, 5115, 5114, 6334, 6335, 6396, 6395
4504, 5054, 5055, 5116, 5115, 6335, 6336, 6397, 6396
4505, 5055, 5056, 5117, 5116, 6336, 6337, 6398, 6397
4506, 5056, 5057, 5118, 5117, 6337, 6338, 6399, 6398
4507, 5057, 5058, 5119, 5118, 6338, 6339, 6400, 6399
4508, 5058, 5059, 5120, 5119, 6339, 6340, 6401, 6400
4509, 5059, 5060, 5121, 5120, 6340, 6341, 6402, 6401
4510, 5060, 5061, 5122, 5121, 6341, 6342, 6403, 6402
4511, 5061, 5062, 5123, 5122, 6342, 6343, 6404, 6403
4512, 5062, 5063, 5124, 5123, 6343, 6344, 6405, 6404
*NSET, NSET=NALL
1, 2, 3, 4, 5, 6, 7, 8, 9, 10, 11, 12, 13, 14, 15, 16
17, 18, 19, 20, 21, 22, 23, 24, 25, 26, 27, 28, 29, 30, 31, 32
33, 34, 35, 36, 37, 38, 39, 40, 41, 42, 43, 44, 45, 46, 47, 48
49, 50, 51, 52, 53, 54, 55, 56, 57, 58, 59, 60, 61, 62, 63, 64
65, 66, 67, 68, 69, 70, 71, 72, 73, 74, 75, 76, 77, 78, 79, 80
81, 82, 83, 84, 85, 86, 87, 88, 89, 90, 91, 92, 93, 94, 95, 96
97, 98, 99, 100, 101, 102, 103, 104, 105, 106, 107, 108, 109, 110, 111, 112
113, 114, 115, 116, 117, 118, 119, 120, 121, 122, 123, 124, 125, 126, 127, 128
129, 130, 131, 132, 133, 134, 135, 136, 137, 138, 139, 140, 141, 142, 143, 144
145, 146, 147, 148, 149, 150, 151, 152, 153, 154, 155, 156, 157, 158, 159, 160
161, 162, 163, 164, 165, 166, 167, 168, 169, 170, 171, 172, 173, 174, 175, 176
177, 178, 179, 180, 181, 182, 183, 184, 185, 186, 187, 188, 189, 190, 191, 192
193, 194, 195, 196, 197, 198, 199, 200, 201, 202, 203, 204, 205, 206, 207, 208
209, 210, 211, 212, 213, 214, 215, 216, 217, 218, 219, 220, 221, 222, 223, 224
225, 226, 227, 228, 229, 230, 231, 232, 233, 234, 235, 236, 237, 238, 239, 240
241, 242, 243, 244, 245, 246, 247, 248, 249, 250, 251, 252, 253, 254, 255, 256
257, 258, 259, 260, 261, 262, 263, 264, 265, 266, 267, 268, 269, 270, 271, 272
273, 274, 275, 276, 277, 278, 279, 280, 281, 282, 283, 284, 285, 286, 287, 288
289, 290, 291, 292, 293, 294, 295, 296, 297, 298, 299, 300, 301, 302, 303, 304
305, 306, 307, 308, 309, 310, 311, 312, 313, 314, 315, 316, 317, 318, 319, 320
321, 322, 323, 324, 325, 326, 327, 328, 329, 330, 331, 332, 333, 334, 335, 336
337, 338, 339, 340, 341, 342, 343, 344, 345, 346, 347, 348, 349, 350, 351, 352
353, 354, 355, 356, 357, 358, 359, 360, 361, 362, 363, 364, 365, 366, 367, 368
369, 370, 371, 372, 373, 374, 375, 376, 377, 378, 379, 380, 381, 382, 383, 384
385, 386, 387, 388, 389, 390, 391, 392, 393, 394, 395, 396, 397, 398, 399, 400
401, 402, 403, 404, 405, 406, 407, 408, 409, 410, 411, 412, 413, 414, 415, 416
417, 418, 419, 420, 421, 422, 423, 424, 425, 426, 427, 428, 429, 430, 431, 432
433, 434, 435, 436, 437, 438, 439, 440, 441, 442, 443, 444, 445, 446, 447, 448
449, 450, 451, 452, 453, 454, 455, 456, 457, 458, 459, 460, 461, 462, 463, 464
465, 466, 467, 468, 469, 470, 471, 472, 473, 474, 475, 476, 477, 478, 479, 480
481, 482, 483, 484, 485, 486, 487, 488, 489, 490, 491, 492, 493, 494, 495, 496
497, 498, 499, 500, 501, 502, 503, 504, 505, 506, 507, 508, 509, 510, 511, 512
513, 514, 515, 516, 517, 518, 519, 520, 521, 522, 523, 524, 525, 526, 527, 528
529, 530, 531, 532, 533, 534, 535, 536, 537, 538, 539, 540, 541, 542, 543, 544
545, 546, 547, 548, 549, 550, 551, 552, 553, 554, 555, 556, 557, 558, 559, 560
561, 562, 563, 564, 565, 566, 567, 568, 569, 570, 571, 572, 573, 574, 575, 576
577, 578, 579, 580, 581, 582, 583, 584, 585, 586, 587, 588, 589, 590, 591, 592
593, 594, 595, 596, 597, 598, 599, 600, 601, 602, 603, 604, 605, 606, 607, 608
609, 610, 611, 612, 613, 614, 615, 616, 617, 618, 619, 620, 621, 622, 623, 624
625, 626, 627, 628, 629, 630, 631, 632, 633, 634, 635, 636, 637, 638, 639, 640
641, 642, 643, 644, 645, 646, 647, 648, 649, 650, 651, 652, 653, 654, 655, 656
657, 658, 659, 660, 661, 662, 663, 664, 665, 666, 667, 668, 669, 670, 671, 672
673, 674, 675, 676, 677, 678, 679, 680, 681, 682, 683, 684, 685, 686, 687, 688
689, 690, 691, 692, 693, 694, 695, 696, 697, 698, 699, 700, 701, 702, 703, 704
705, 706, 707, 708, 709, 710, 711, 712, 713, 714, 715, 716, 717, 718, 719, 720
721, 722, 723, 724, 725, 726, 727, 728, 729, 730, 731, 732, 733, 734, 735, 736
737, 738, 739, 740, 741, 742, 743, 744, 745, 746, 747, 748, 749, 750, 751, 752
753, 754, 755, 756, 757, 758, 759, 760, 761, 762, 763, 764, 765, 766, 767, 768
769, 770, 771, 772, 773, 774, 775, 776, 777, 778, 779, 780, 781, 782, 783, 784
785, 786, 787, 788, 789, 790, 791, 792, 793, 794, 795, 796, 797, 798, 799, 800
801, 802, 803, 804, 805, 806, 807, 808, 809, 810, 811, 812, 813, 814, 815, 816
817, 818, 819, 820, 821, 822, 823, 824, 825, 826, 827, 828, 829, 830, 831, 832
833, 834, 835, 836, 837, 838, 839, 840, 841, 842, 843, 844, 845, 846, 847, 848
849, 850, 851, 852, 853, 854, 855, 856, 857, 858, 859, 860, 861, 862, 863, 864
865, 866, 867, 868, 869, 870, 871, 872, 873, 874, 875, 876, 877, 878, 879, 880
881, 882, 883, 884, 885, 886, 887, 888, 889, 890, 891, 892, 893, 894, 895, 896
897, 898, 899, 900, 901, 902, 903, 904, 905, 906, 907, 908, 909, 910, 911, 912
913, 914, 915, 916, 917, 918, 919, 920, 921, 922, 923, 924, 925, 926, 927, 928
929, 930, 931, 932, 933, 934, 935, 936, 937, 938, 939, 940, 952, 953, 954, 955
956, 957, 958, 959, 960, 961, 962, 963, 964, 965, 966, 967, 968, 969, 970, 971
972, 973, 974, 975, 976, 977, 978, 979, 980, 981, 982, 983, 984, 985, 986, 987
988, 989, 990, 991, 992, 993, 994, 995, 996, 997, 998, 999, 1000, 1001, 1013, 1014
1015, 1016, 1017, 1018, 1019, 1020, 1021, 1022, 1023, 1024, 1025, 1026, 1027, 1028, 1029, 1030
1031, 1032, 1033, 1034, 1035, 1036, 1037, 1038, 1039, 1040, 1041, 1042, 1043, 1044, 1045, 1046
1047, 1048, 1049, 1050, 1051, 1052, 1053, 1054, 1055, 1056, 1057, 1058, 1059, 1060, 1061, 1062
1074, 1075, 1076, 1077, 1078, 1079, 1080, 1081, 1082, 1083, 1084, 1085, 1086, 1087, 1088, 1089
1090, 1091, 1092, 1093, 1094, 1095, 1096, 1097, 1098, 1099, 1100, 1101, 1102, 1103, 1104, 1105
1106, 1107, 1108, 1109, 1110, 1111, 1112, 1113, 1114, 1115, 1116, 1117, 1118, 1119, 1120, 1121
1122, 1123, 1135, 1136, 1137, 1138, 1139, 1140, 1141, 1142, 1143, 1144, 1145, 1146, 1147, 1148
1149, 1150, 1151, 1152, 1153, 1154, 1155, 1156, 1157, 1158, 1159, 1160, 1161, 1162, 1163, 1164
1165, 1166, 1167, 1168, 1169, 1170, 1171, 1172, 1173, 1174, 1175, 1176, 1177, 1178, 1179, 1180
1181, 1182, 1183, 1184, 1196, 1197, 1198, 1199, 1200, 1201, 1202, 1203, 1204, 1205, 1206, 1207
1208, 1209, 1210, 1211, 1212, 1213, 1214, 1215, 1216, 1217, 1218, 1219, 1220, 1221, 1222, 1223
1224, 1225, 1226, 1227, 1228, 1229, 1230, 1231, 1232, 1233, 1234, 1235, 1236, 1237, 1238, 1239
1240, 1241, 1242, 1243, 1244, 1245, 1257, 1258, 1259, 1260, 1261, 1262, 1263, 1264, 1265, 1266
1267, 1268, 1269, 1270, 1271, 1272, 1273, 1274, 1275, 1276, 1277, 1278, 1279, 1280, 1281, 1282
1283, 1284, 1285, 1286, 1287, 1288, 1289, 1290, 1291, 1292, 1293, 1294, 1295, 1296, 1297, 1298
1299, 1300, 1301, 1302, 1303, 1304, 1305, 1306, 1307, 1308, 1309, 1310, 1311, 1312, 1313, 1314
1315, 1316, 1317, 1318, 1319, 1320, 1321, 1322, 1323, 1324, 1325, 1326, 1327, 1328, 1329, 1330
1331, 1332, 1333, 1334, 1335, 1336, 1337, 1338, 1339, 1340, 1341, 1342, 1343, 1344, 1345, 1346
1347, 1348, 1349, 1350, 1351, 1352, 1353, 1354, 1355, 1356, 1357, 1358, 1359, 1360, 1361, 1362
1363, 1364, 1365, 1366, 1367, 1368, 1369, 1370, 1371, 1372, 1373, 1374, 1375, 1376, 1377, 1378
1379, 1380, 1381, 1382, 1383, 1384, 1385, 1386, 1387, 1388, 1389, 1390, 1391, 1392, 1393, 1394
1395, 1396, 1397, 1398, 1399, 1400, 1401, 1402, 1403, 1404, 1405, 1406, 1407, 1408, 1409, 1410
1411, 1412, 1413, 1414, 1415, 1416, 1417, 1418, 1419, 1420, 1421, 1422, 1423, 1424, 1425, 1426
1427, 1428, 1429, 1430, 1431, 1432, 1433, 1434, 1435, 1436, 1437, 1438, 1439, 1440, 1441, 1442
1443, 1444, 1445, 1446, 1447, 1448, 1449, 1450, 1451, 1452, 1453, 1454, 1455, 1456, 1457, 1458
1459, 1460, 1461, 1462, 1463, 1464, 1465, 1466, 1467, 1468, 1469, 1470, 1471, 1472, 1473, 1474
1475, 1476, 1477, 1478, 1479, 1480, 1481, 1482, 1483, 1484, 1485, 1486, 1487, 1488, 1489, 1490
1491, 1492, 1493, 1494, 1495, 1496, 1497, 1498, 1499, 1500, 1501, 1502, 1503, 1504, 1505, 1506
1507, 1508, 1509, 1510, 1511, 1512, 1513, 1514, 1515, 1516, 1517, 1518, 1519, 1520, 1521, 1522
1523, 1524, 1525, 1526, 1527, 1528, 1529, 1530, 1531, 1532, 1533, 1534, 1535, 1536, 1537, 1538
1539, 1540, 1541, 1542, 1543, 1544, 1545, 1546, 1547, 1548, 1549, 1550, 1551, 1552, 1553, 1554
1555, 1556, 1557, 1558, 1559, 1560, 1561, 1562, 1563, 1564, 1565, 1566, 1567, 1568, 1569, 1570
1571, 1572, 1573, 1574, 1575, 1576, 1577, 1578, 1579, 1580, 1581, 1582, 1583, 1584, 1585, 1586
1587, 1588, 1589, 1590, 1591, 1592, 1593, 1594, 1595, 1596, 1597, 1598, 1599, 1600, 1601, 1602
1603, 1604, 1605, 1606, 1607, 1608, 1609, 1610, 1611, 1612, 1613, 1614, 1615, 1616, 1617, 1618
1619, 1620, 1621, 1622, 1623, 1624, 1625, 1626, 1627, 1628, 1629, 1630, 1631, 1632, 1633, 1634
1635, 1636, 1637, 1638, 1639, 1640, 1641, 1642, 1643, 1644, 1645, 1646, 1647, 1648, 1649, 1650
1651, 1652, 1653, 1654, 1655, 1656, 1657, 1658, 1659, 1660, 1661, 1662, 1663, 1664, 1665, 1666
1667, 1668, 1669, 1670, 1671, 1672, 1673, 1674, 1675, 1676, 1677, 1678, 1679, 1680, 1681, 1682
1683, 1684, 1685, 1686, 1687, 1688, 1689, 1690, 1691, 1692, 1693, 1694, 1695, 1696, 1697, 1698
1699, 1700, 1701, 1702, 1703, 1704, 1705, 1706, 1707, 1708, 1709, 1710, 1711, 1712, 1713, 1714
1715, 1716, 1717, 1718, 1719, 1720, 1721, 1722, 1723, 1724, 1725, 1726, 1727, 1728, 1729, 1730
1731, 1732, 1733, 1734, 1735, 1736, 1737, 1738, 1739, 1740, 1741, 1742, 1743, 1744, 1745, 1746
1747, 1748, 1749, 1750, 1751, 1752, 1753, 1754, 1755, 1756, 1757, 1758, 1759, 1760, 1761, 1762
1763, 1764, 1765, 1766, 1767, 1768, 1769, 1770, 1771, 1772, 1773, 1774, 1775, 1776, 1777, 1778
1779, 1780, 1781, 1782, 1783, 1784, 1785, 1786, 1787, 1788, 1789, 1790, 1791, 1792, 1793, 1794
1795, 1796, 1797, 1798, 1799, 1800, 1801, 1802, 1803, 1804, 1805, 1806, 1807, 1808, 1809, 1810
1811, 1812, 1813, 1814, 1815, 1816, 1817, 1818, 1819, 1820, 1821, 1822, 1823, 1824, 1825, 1826
1827, 1828, 1829, 1830, 1831, 1832, 1833, 1834, 1835, 1836, 1837, 1838, 1839, 1840, 1841, 1842
1843, 1844, 1845, 1846, 1847, 1848, 1849, 1850, 1851, 1852, 1853, 1854, 1855, 1856, 1857, 1858
1859, 1860, 1861, 1862, 1863, 1864, 1865, 1866, 1867, 1868, 1869, 1870, 1871, 1872, 1873, 1874
1875, 1876, 1877, 1878, 1879, 1880, 1881, 1882, 1883, 1884, 1885, 1886, 1887, 1888, 1889, 1890
1891, 1892, 1893, 1894, 1895, 1896, 1897, 1898, 1899, 1900, 1901, 1902, 1903, 1904, 1905, 1906
1907, 1908, 1909, 1910, 1911, 1912, 1913, 1914, 1915, 1916, 1917, 1918, 1919, 1920, 1921, 1922
1923, 1924, 1925, 1926, 1927, 1928, 1929, 1930, 1931, 1932, 1933, 1934, 1935, 1936, 1937, 1938
1939, 1940, 1941, 1942, 1943, 1944, 1945, 1946, 1947, 1948, 1949, 1950, 1951, 1952, 1953, 1954
1955, 1956, 1957, 1958, 1959, 1960, 1961, 1962, 1963, 1964, 1965, 1966, 1967, 1968, 1969, 1970
1971, 1972, 1973, 1974, 1975, 1976, 1977, 1978, 1979, 1980, 1981, 1982, 1983, 1984, 1985, 1986
1987, 1988, 1989, 1990, 1991, 1992, 1993, 1994, 1995, 1996, 1997, 1998, 1999, 2000, 2001, 2002
2003, 2004, 2005, 2006, 2007, 2008, 2009, 2010, 2011, 2012, 2013, 2014, 2015, 2016, 2017, 2018
2019, 2020, 2021, 2022, 2023, 2024, 2025, 2026, 2027, 2028, 2029, 2030, 2031, 2032, 2033, 2034
2035, 2036, 2037, 2038, 2039, 2040, 2041, 2042, 2043, 2044, 2045, 2046, 2047, 2048, 2049, 2050
2051, 2052, 2053, 2054, 2055, 2056, 2057, 2058, 2059, 2060, 2061, 2062, 2063, 2064, 2065, 2066
2067, 2068, 2069, 2070, 2071, 2072, 2073, 2074, 2075, 2076, 2077, 2078, 2079, 2080, 2081, 2082
2083, 2084, 2085, 2086, 2087, 2088, 2089, 2090, 2091, 2092, 2093, 2094, 2095, 2096, 2097, 2098
2099, 2100, 2101, 2102, 2103, 2104, 2105, 2106, 2107, 2108, 2109, 2110, 2111, 2112, 2113, 2114
2115, 2116, 2117, 2118, 2119, 2120, 2121, 2122, 2123, 2124, 2125, 2126, 2127, 2128, 2129, 2130
2131, 2132, 2133, 2134, 2135, 2136, 2137, 2138, 2139, 2140, 2141, 2142, 2143, 2144, 2145, 2146
2147, 2148, 2149, 2150, 2151, 2152, 2153, 2154, 2155, 2156, 2157, 2158, 2159, 2160, 2161, 2162
2163, 2164, 2165, 2166, 2167, 2168, 2169, 2170, 2171, 2172, 2173, 2174, 2175, 2176, 2177, 2178
2179, 2180, 2181, 2182, 2183, 2184, 2185, 2186, 2187, 2188, 2189, 2190, 2191, 2192, 2193, 2194
2195, 2196, 2197, 2198, 2199, 2200, 2201, 2202, 2203, 2204, 2205, 2206, 2207, 2208, 2209, 2210
2211, 2212, 2213, 2214, 2215, 2216, 2217, 2218, 2219, 2220, 2221, 2233, 2234, 2235, 2236, 2237
2238, 2239, 2240, 2241, 2242, 2243, 2244, 2245, 2246, 2247, 2248, 2249, 2250, 2251, 2252, 2253
2254, 2255, 2256, 2257, 2258, 2259, 2260, 2261, 2262, 2263, 2264, 2265, 2266, 2267, 2268, 2269
2270, 2271, 2272, 2273, 2274, 2275, 2276, 2277, 2278, 2279, 2280, 2281, 2282, 2294, 2295, 2296
2297, 2298, 2299, 2300, 2301, 2302, 2303, 2304, 2305, 2306, 2307, 2308, 2309, 2310, 2311, 2312
2313, 2314, 2315, 2316, 2317, 2318, 2319, 2320, 2321, 2322, 2323, 2324, 2325, 2326, 2327, 2328
2329, 2330, 2331, 2332, 2333, 2334, 2335, 2336, 2337, 2338, 2339, 2340, 2341, 2342, 2343, 2355
2356, 2357, 2358, 2359, 2360, 2361, 2362, 2363, 2364, 2365, 2366, 2367, 2368, 2369, 2370, 2371
2372, 2373, 2374, 2375, 2376, 2377, 2378, 2379, 2380, 2381, 2382, 2383, 2384, 2385, 2386, 2387
2388, 2389, 2390, 2391, 2392, 2393, 2394, 2395, 2396, 2397, 2398, 2399, 2400, 2401, 2402, 2403
2404, 2416, 2417, 2418, 2419, 2420, 2421, 2422, 2423, 2424, 2425, 2426, 2427, 2428, 2429, 2430
2431, 2432, 2433, 2434, 2435, 2436, 2437, 2438, 2439, 2440, 2441, 2442, 2443, 2444, 2445, 2446
2447, 2448, 2449, 2450, 2451, 2452, 2453, 2454, 2455, 2456, 2457, 2458, 2459, 2460, 2461, 2462
2463, 2464, 2465, 2477, 2478, 2479, 2480, 2481, 2482, 2483, 2484, 2485, 2486, 2487, 2488, 2489
2490, 2491, 2492, 2493, 2494, 2495, 2496, 2497, 2498, 2499, 2500, 2501, 2502, 2503, 2504, 2505
2506, 2507, 2508, 2509, 2510, 2511, 2512, 2513, 2514, 2515, 2516, 2517, 2518, 2519, 2520, 2521
2522, 2523, 2524, 2525, 2526, 2538, 2539, 2540, 2541, 2542, 2543, 2544, 2545, 2546, 2547, 2548
2549, 2550, 2551, 2552, 2553, 2554, 2555, 2556, 2557, 2558, 2559, 2560, 2561, 2562, 2563, 2564
2565, 2566, 2567, 2568, 2569, 2570, 2571, 2572, 2573, 2574, 2575, 2576, 2577, 2578, 2579, 2580
2581, 2582, 2583, 2584, 2585, 2586, 2587, 2588, 2589, 2590, 2591, 2592, 2593, 2594, 2595, 2596
2597, 2598, 2599, 2600, 2601, 2602, 2603, 2604, 2605, 2606, 2607, 2608, 2609, 2610, 2611, 2612
2613, 2614, 2615, 2616, 2617, 2618, 2619, 2620, 2621, 2622, 2623, 2624, 2625, 2626, 2627, 2628
2629, 2630, 2631, 2632, 2633, 2634, 2635, 2636, 2637, 2638, 2639, 2640, 2641, 2642, 2643, 2644
2645, 2646, 2647, 2648, 2649, 2650, 2651, 2652, 2653, 2654, 2655, 2656, 2657, 2658, 2659, 2660
2661, 2662, 2663, 2664, 2665, 2666, 2667, 2668, 2669, 2670, 2671, 2672, 2673, 2674, 2675, 2676
2677, 2678, 2679, 2680, 2681, 2682, 2683, 2684, 2685, 2686, 2687, 2688, 2689, 2690, 2691, 2692
2693, 2694, 2695, 2696, 2697, 2698, 2699, 2700, 2701, 2702, 2703, 2704, 2705, 2706, 2707, 2708
2709, 2710, 2711, 2712, 2713, 2714, 2715, 2716, 2717, 2718, 2719, 2720, 2721, 2722, 2723, 2724
2725, 2726, 2727, 2728, 2729, 2730, 2731, 2732, 2733, 2734, 2735, 2736, 2737, 2738, 2739, 2740
2741, 2742, 2743, 2744, 2745, 2746, 2747, 2748, 2749, 2750, 2751, 2752, 2753, 2754, 2755, 2756
2757, 2758, 2759, 2760, 2761, 2762, 2763, 2764, 2765, 2766, 2767, 2768, 2769, 2770, 2771, 2772
2773, 2774, 2775, 2776, 2777, 2778, 2779, 2780, 2781, 2782, 2783, 2784, 2785, 2786, 2787, 2788
2789, 2790, 2791, 2792, 2793, 2794, 2795, 2796, 2797, 2798, 2799, 2800, 2801, 2802, 2803, 2804
2805, 2806, 2807, 2808, 2809, 2810, 2811, 2812, 2813, 2814, 2815, 2816, 2817, 2818, 2819, 2820
2821, 2822, 2823, 2824, 2825, 2826, 2827, 2828, 2829, 2830, 2831, 2832, 2833, 2834, 2835, 2836
2837, 2838, 2839, 2840, 2841, 2842, 2843, 2844, 2845, 2846, 2847, 2848, 2849, 2850, 2851, 2852
2853, 2854, 2855, 2856, 2857, 2858, 2859, 2860, 2861, 2862, 2863, 2864, 2865, 2866, 2867, 2868
2869, 2870, 2871, 2872, 2873, 2874, 2875, 2876, 2877, 2878, 2879, 2880, 2881, 2882, 2883, 2884
2885, 2886, 2887, 2888, 2889, 2890, 2891, 2892, 2893, 2894, 2895, 2896, 2897, 2898, 2899, 2900
2901, 2902, 2903, 2904, 2905, 2906, 2907, 2908, 2909, 2910, 2911, 2912, 2913, 2914, 2915, 2916
2917, 2918, 2919, 2920, 2921, 2922, 2923, 2924, 2925, 2926, 2927, 2928, 2929, 2930, 2931, 2932
2933, 2934, 2935, 2936, 2937, 2938, 2939, 2940, 2941, 2942, 2943, 2944, 2945, 2946, 2947, 2948
2949, 2950, 2951, 2952, 2953, 2954, 2955, 2956, 2957, 2958, 2959, 2960, 2961, 2962, 2963, 2964
2965, 2966, 2967, 2968, 2969, 2970, 2971, 2972, 2973, 2974, 2975, 2976, 2977, 2978, 2979, 2980
2981, 2982, 2983, 2984, 2985, 2986, 2987, 2988, 2989, 2990, 2991, 2992, 2993, 2994, 2995, 2996
2997, 2998, 2999, 3000, 3001, 3002, 3003, 3004, 3005, 3006, 3007, 3008, 3009, 3010, 3011, 3012
3013, 3014, 3015, 3016, 3017, 3018, 3019, 3020, 3021, 3022, 3023, 3024, 3025, 3026, 3027, 3028
3029, 3030, 3031, 3032, 3033, 3034, 3035, 3036, 3037, 3038, 3039, 3040, 3041, 3042, 3043, 3044
3045, 3046, 3047, 3048, 3049, 3050, 3051, 3052, 3053, 3054, 3055, 3056, 3057, 3058, 3059, 3060
3061, 3062, 3063, 3064, 3065, 3066, 3067, 3068, 3069, 3070, 3071, 3072, 3073, 3074, 3075, 3076
3077, 3078, 3079, 3080, 3081, 3082, 3083, 3084, 3085, 3086, 3087, 3088, 3089, 3090, 3091, 3092
3093, 3094, 3095, 3096, 3097, 3098, 3099, 3100, 3101, 3102, 3103, 3104, 3105, 3106, 3107, 3108
3109, 3110, 3111, 3112, 3113, 3114, 3115, 3116, 3117, 3118, 3119, 3120, 3121, 3122, 3123, 3124
3125, 3126, 3127, 3128, 3129, 3130, 3131, 3132, 3133, 3134, 3135, 3136, 3137, 3138, 3139, 3140
3141, 3142, 3143, 3144, 3145, 3146, 3147, 3148, 3149, 3150, 3151, 3152, 3153, 3154, 3155, 3156
3157, 3158, 3159, 3160, 3161, 3162, 3163, 3164, 3165, 3166, 3167, 3168, 3169, 3170, 3171, 3172
3173, 3174, 3175, 3176, 3177, 3178, 3179, 3180, 3181, 3182, 3183, 3184, 3185, 3186, 3187, 3188
3189, 3190, 3191, 3192, 3193, 3194, 3195, 3196, 3197, 3198, 3199, 3200, 3201, 3202, 3203, 3204
3205, 3206, 3207, 3208, 3209, 3210, 3211, 3212, 3213, 3214, 3215, 3216, 3217, 3218, 3219, 3220
3221, 3222, 3223, 3224, 3225, 3226, 3227, 3228, 3229, 3230, 3231, 3232, 3233, 3234, 3235, 3236
3237, 3238, 3239, 3240, 3241, 3242, 3243, 3244, 3245, 3246, 3247, 3248, 3249, 3250, 3251, 3252
3253, 3254, 3255, 3256, 3257, 3258, 3259, 3260, 3261, 3262, 3263, 3264, 3265, 3266, 3267, 3268
3269, 3270, 3271, 3272, 3273, 3274, 3275, 3276, 3277, 3278, 3279, 3280, 3281, 3282, 3283, 3284
3285, 3286, 3287, 3288, 3289, 3290, 3291, 3292, 3293, 3294, 3295, 3296, 3297, 3298, 3299, 3300
3301, 3302, 3303, 3304, 3305, 3306, 3307, 3308, 3309, 3310, 3311, 3312, 3313, 3314, 3315, 3316
3317, 3318, 3319, 3320, 3321, 3322, 3323, 3324, 3325, 3326, 3327, 3328, 3329, 3330, 3331, 3332
3333, 3334, 3335, 3336, 3337, 3338, 3339, 3340, 3341, 3342, 3343, 3344, 3345, 3346, 3347, 3348
3349, 3350, 3351, 3352, 3353, 3354, 3355, 3356, 3357, 3358, 3359, 3360, 3361, 3362, 3363, 3364
3365, 3366, 3367, 3368, 3369, 3370, 3371, 3372, 3373, 3374, 3375, 3376, 3377, 3378, 3379, 3380
3381, 3382, 3383, 3384, 3385, 3386, 3387, 3388, 3389, 3390, 3391, 3392, 3393, 3394, 3395, 3396
3397, 3398, 3399, 3400, 3401, 3402, 3403, 3404, 3405, 3406, 3407, 3408, 3409, 3410, 3411, 3412
3413, 3414, 3415, 3416, 3417, 3418, 3419, 3420, 3421, 3422, 3423, 3424, 3425, 3426, 3427, 3428
3429, 3430, 3431, 3432, 3433, 3434, 3435, 3436, 3437, 3438, 3439, 3440, 3441, 3442, 3443, 3444
3445, 3446, 3447, 3448, 3449, 3450, 3451, 3452, 3453, 3454, 3455, 3456, 3457, 3458, 3459, 3460
3461, 3462, 3463, 3464, 3465, 3466, 3467, 3468, 3469, 3470, 3471, 3472, 3473, 3474, 3475, 3476
3477, 3478, 3479, 3480, 3481, 3482, 3483, 3484, 3485, 3486, 3487, 3488, 3489, 3490, 3491, 3492
3493, 3494, 3495, 3496, 3497, 3498, 3499, 3500, 3501, 3502, 3514, 3515, 3516, 3517, 3518, 3519
3520, 3521, 3522, 3523, 3524, 3525, 3526, 3527, 3528, 3529, 3530, 3531, 3532, 3533, 3534, 3535
3536, 3537, 3538, 3539, 3540, 3541, 3542, 3543, 3544, 3545, 3546, 3547, 3548, 3549, 3550, 3551
3552, 3553, 3554, 3555, 3556, 3557, 3558, 3559, 3560, 3561, 3562, 3563, 3575, 3576, 3577, 3578
3579, 3580, 3581, 3582, 3583, 3584, 3585, 3586, 3587, 3588, 3589, 3590, 3591, 3592, 3593, 3594
3595, 3596, 3597, 3598, 3599, 3600, 3601, 3602, 3603, 3604, 3605, 3606, 3607, 3608, 3609, 3610
3611, 3612, 3613, 3614, 3615, 3616, 3617, 3618, 3619, 3620, 3621, 3622, 3623, 3624, 3636, 3637
3638, 3639, 3640, 3641, 3642, 3643, 3644, 3645, 3646, 3647, 3648, 3649, 3650, 3651, 3652, 3653
3654, 3655, 3656, 3657, 3658, 3659, 3660, 3661, 3662, 3663, 3664, 3665, 3666, 3667, 3668, 3669
3670, 3671, 3672, 3673, 3674, 3675, 3676, 3677, 3678, 3679, 3680, 3681, 3682, 3683, 3684, 3685
3697, 3698, 3699, 3700, 3701, 3702, 3703, 3704, 3705, 3706, 3707, 3708, 3709, 3710, 3711, 3712
3713, 3714, 3715, 3716, 3717, 3718, 3719, 3720, 3721, 3722, 3723, 3724, 3725, 3726, 3727, 3728
3729, 3730, 3731, 3732, 3733, 3734, 3735, 3736, 3737, 3738, 3739, 3740, 3741, 3742, 3743, 3744
3745, 3746, 3758, 3759, 3760, 3761, 3762, 3763, 3764, 3765, 3766, 3767, 3768, 3769, 3770, 3771
3772, 3773, 3774, 3775, 3776, 3777, 3778, 3779, 3780, 3781, 3782, 3783, 3784, 3785, 3786, 3787
3788, 3789, 3790, 3791, 3792, 3793, 3794, 3795, 3796, 3797, 3798, 3799, 3800, 3801, 3802, 3803
3804, 3805, 3806, 3807, 3819, 3820, 3821, 3822, 3823, 3824, 3825, 3826, 3827, 3828, 3829, 3830
3831, 3832, 3833, 3834, 3835, 3836, 3837, 3838, 3839, 3840, 3841, 3842, 3843, 3844, 3845, 3846
3847, 3848, 3849, 3850, 3851, 3852, 3853, 3854, 3855, 3856, 3857, 3858, 3859, 3860, 3861, 3862
3863, 3864, 3865, 3866, 3867, 3868, 3869, 3870, 3871, 3872, 3873, 3874, 3875, 3876, 3877, 3878
3879, 3880, 3881, 3882, 3883, 3884, 3885, 3886, 3887, 3888, 3889, 3890, 3891, 3892, 3893, 3894
3895, 3896, 3897, 3898, 3899, 3900, 3901, 3902, 3903, 3904, 3905, 3906, 3907, 3908, 3909, 3910
3911, 3912, 3913, 3914, 3915, 3916, 3917, 3918, 3919, 3920, 3921, 3922, 3923, 3924, 3925, 3926
3927, 3928, 3929, 3930, 3931, 3932, 3933, 3934, 3935, 3936, 3937, 3938, 3939, 3940, 3941, 3942
3943, 3944, 3945, 3946, 3947, 3948, 3949, 3950, 3951, 3952, 3953, 3954, 3955, 3956, 3957, 3958
3959, 3960, 3961, 3962, 3963, 3964, 3965, 3966, 3967, 3968, 3969, 3970, 3971, 3972, 3973, 3974
3975, 3976, 3977, 3978, 3979, 3980, 3981, 3982, 3983, 3984, 3985, 3986, 3987, 3988, 3989, 3990
3991, 3992, 3993, 3994, 3995, 3996, 3997, 3998, 3999, 4000, 4001, 4002, 4003, 4004, 4005, 4006
4007, 4008, 4009, 4010, 4011, 4012, 4013, 4014, 4015, 4016, 4017, 4018, 4019, 4020, 4021, 4022
4023, 4024, 4025, 4026, 4027, 4028, 4029, 4030, 4031, 4032, 4033, 4034, 4035, 4036, 4037, 4038
4039, 4040, 4041, 4042, 4043, 4044, 4045, 4046, 4047, 4048, 4049, 4050, 4051, 4052, 4053, 4054
4055, 4056, 4057, 4058, 4059, 4060, 4061, 4062, 4063, 4064, 4065, 4066, 4067, 4068, 4069, 4070
4071, 4072, 4073, 4074, 4075, 4076, 4077, 4078, 4079, 4080, 4081, 4082, 4083, 4084, 4085, 4086
4087, 4088, 4089, 4090, 4091, 4092, 4093, 4094, 4095, 4096, 4097, 4098, 4099, 4100, 4101, 4102
4103, 4104, 4105, 4106, 4107, 4108, 4109, 4110, 4111, 4112, 4113, 4114, 4115, 4116, 4117, 4118
4119, 4120, 4121, 4122, 4123, 4124, 4125, 4126, 4127, 4128, 4129, 4130, 4131, 4132, 4133, 4134
4135, 4136, 4137, 4138, 4139, 4140, 4141, 4142, 4143, 4144, 4145, 4146, 4147, 4148, 4149, 4150
4151, 4152, 4153, 4154, 4155, 4156, 4157, 4158, 4159, 4160, 4161, 4162, 4163, 4164, 4165, 4166
4167, 4168, 4169, 4170, 4171, 4172, 4173, 4174, 4175, 4176, 4177, 4178, 4179, 4180, 4181, 4182
4183, 4184, 4185, 4186, 4187, 4188, 4189, 4190, 4191, 4192, 4193, 4194, 4195, 4196, 4197, 4198
4199, 4200, 4201, 4202, 4203, 4204, 4205, 4206, 4207, 4208, 4209, 4210, 4211, 4212, 4213, 4214
4215, 4216, 4217, 4218, 4219, 4220, 4221, 4222, 4223, 4224, 4225, 4226, 4227, 4228, 4229, 4230
4231, 4232, 4233, 4234, 4235, 4236, 4237, 4238, 4239, 4240, 4241, 4242, 4243, 4244, 4245, 4246
4247, 4248, 4249, 4250, 4251, 4252, 4253, 4254, 4255, 4256, 4257, 4258, 4259, 4260, 4261, 4262
4263, 4264, 4265, 4266, 4267, 4268, 4269, 4270, 4271, 4272, 4273, 4274, 4275, 4276, 4277, 4278
4279, 4280, 4281, 4282, 4283, 4284, 4285, 4286, 4287, 4288, 4289, 4290, 4291, 4292, 4293, 4294
4295, 4296, 4297, 4298, 4299, 4300, 4301, 4302, 4303, 4304, 4305, 4306, 4307, 4308, 4309, 4310
4311, 4312, 4313, 4314, 4315, 4316, 4317, 4318, 4319, 4320, 4321, 4322, 4323, 4324, 4325, 4326
4327, 4328, 4329, 4330, 4331, 4332, 4333, 4334, 4335, 4336, 4337, 4338, 4339, 4340, 4341, 4342
4343, 4344, 4345, 4346, 4347, 4348, 4349, 4350, 4351, 4352, 4353, 4354, 4355, 4356, 4357, 4358
4359, 4360, 4361, 4362, 4363, 4364, 4365, 4366, 4367, 4368, 4369, 4370, 4371, 4372, 4373, 4374
4375, 4376, 4377, 4378, 4379, 4380, 4381, 4382, 4383, 4384, 4385, 4386, 4387, 4388, 4389, 4390
4391, 4392, 4393, 4394, 4395, 4396, 4397, 4398, 4399, 4400, 4401, 4402, 4403, 4404, 4405, 4406
4407, 4408, 4409, 4410, 4411, 4412, 4413, 4414, 4415, 4416, 4417, 4418, 4419, 4420, 4421, 4422
4423, 4424, 4425, 4426, 4427, 4428, 4429, 4430, 4431, 4432, 4433, 4434, 4435, 4436, 4437, 4438
4439, 4440, 4441, 4442, 4443, 4444, 4445, 4446, 4447, 4448, 4449, 4450, 4451, 4452, 4453, 4454
4455, 4456, 4457, 4458, 4459, 4460, 4461, 4462, 4463, 4464, 4465, 4466, 4467, 4468, 4469, 4470
4471, 4472, 4473, 4474, 4475, 4476, 4477, 4478, 4479, 4480, 4481, 4482, 4483, 4484, 4485, 4486
4487, 4488, 4489, 4490, 4491, 4492, 4493, 4494, 4495, 4496, 4497, 4498, 4499, 4500, 4501, 4502
4503, 4504, 4505, 4506, 4507, 4508, 4509, 4510, 4511, 4512, 4513, 4514, 4515, 4516, 4517, 4518
4519, 4520, 4521, 4522, 4523, 4524, 4525, 4526, 4527, 4528, 4529, 4530, 4531, 4532, 4533, 4534
4535, 4536, 4537, 4538, 4539, 4540, 4541, 4542, 4543, 4544, 4545, 4546, 4547, 4548, 4549, 4550
4551, 4552, 4553, 4554, 4555, 4556, 4557, 4558, 4559, 4560, 4561, 4562, 4563, 4564, 4565, 4566
4567, 4568, 4569, 4570, 4571, 4572, 4573, 4574, 4575, 4576, 4577, 4578, 4579, 4580, 4581, 4582
4583, 4584, 4585, 4586, 4587, 4588, 4589, 4590, 4591, 4592, 4593, 4594, 4595, 4596, 4597, 4598
4599, 4600, 4601, 4602, 4603, 4604, 4605, 4606, 4607, 4608, 4609, 4610, 4611, 4612, 4613, 4614
4615, 4616, 4617, 4618, 4619, 4620, 4621, 4622, 4623, 4624, 4625, 4626, 4627, 4628, 4629, 4630
4631, 4632, 4633, 4634, 4635, 4636, 4637, 4638, 4639, 4640, 4641, 4642, 4643, 4644, 4645, 4646
4647, 4648, 4649, 4650, 4651, 4652, 4653, 4654, 4655, 4656, 4657, 4658, 4659, 4660, 4661, 4662
4663, 4664, 4665, 4666, 4667, 4668, 4669, 4670, 4671, 4672, 4673, 4674, 4675, 4676, 4677, 4678
4679, 4680, 4681, 4682, 4683, 4684, 4685, 4686, 4687, 4688, 4689, 4690, 4691, 4692, 4693, 4694
4695, 4696, 4697, 4698, 4699, 4700, 4701, 4702, 4703, 4704, 4705, 4706, 4707, 4708, 4709, 4710
4711, 4712, 4713, 4714, 4715, 4716, 4717, 4718, 4719, 4720, 4721, 4722, 4723, 4724, 4725, 4726
4727, 4728, 4729, 4730, 4731, 4732, 4733, 4734, 4735, 4736, 4737, 4738, 4739, 4740, 4741, 4742
4743, 4744, 4745, 4746, 4747, 4748, 4749, 4750, 4751, 4752, 4753, 4754, 4755, 4756, 4757, 4758
4759, 4760, 4761, 4762, 4763, 4764, 4765, 4766, 4767, 4768, 4769, 4770, 4771, 4772, 4773, 4774
4775, 4776, 4777, 4778, 4779, 4780, 4781, 4782, 4783, 4795, 4796, 4797, 4798, 4799, 4800, 4801
4802, 4803, 4804, 4805, 4806, 4807, 4808, 4809, 4810, 4811, 4812, 4813, 4814, 4815, 4816, 4817
4818, 4819, 4820, 4821, 4822, 4823, 4824, 4825, 4826, 4827, 4828, 4829, 4830, 4831, 4832, 4833
4834, 4835, 4836, 4837, 4838, 4839, 4840, 4841, 4842, 4843, 4844, 4856, 4857, 4858, 4859, 4860
4861, 4862, 4863, 4864, 4865, 4866, 4867, 4868, 4869, 4870, 4871, 4872, 4873, 4874, 4875, 4876
4877, 4878, 4879, 4880, 4881, 4882, 4883, 4884, 4885, 4886, 4887, 4888, 4889, 4890, 4891, 4892
4893, 4894, 4895, 4896, 4897, 4898, 4899, 4900, 4901, 4902, 4903, 4904, 4905, 4917, 4918, 4919
4920, 4921, 4922, 4923, 4924, 4925, 4926, 4927, 4928, 4929, 4930, 4931, 4932, 4933, 4934, 4935
4936, 4937, 4938, 4939, 4940, 4941, 4942, 4943, 4944, 4945, 4946, 4947, 4948, 4949, 4950, 4951
4952, 4953, 4954, 4955, 4956, 4957, 4958, 4959, 4960, 4961, 4962, 4963, 4964, 4965, 4966, 4978
4979, 4980, 4981, 4982, 4983, 4984, 4985, 4986, 4987, 4988, 4989, 4990, 4991, 4992, 4993, 4994
4995, 4996, 4997, 4998, 4999, 5000, 5001, 5002, 5003, 5004, 5005, 5006, 5007, 5008, 5009, 5010
5011, 5012, 5013, 5014, 5015, 5016, 5017, 5018, 5019, 5020, 5021, 5022, 5023, 5024, 5025, 5026
5027, 5039, 5040, 5041, 5042, 5043, 5044, 5045, 5046, 5047, 5048, 5049, 5050, 5051, 5052, 5053
5054, 5055, 5056, 5057, 5058, 5059, 5060, 5061, 5062, 5063, 5064, 5065, 5066, 5067, 5068, 5069
5070, 5071, 5072, 5073, 5074, 5075, 5076, 5077, 5078, 5079, 5080, 5081, 5082, 5083, 5084, 5085
5086, 5087, 5088, 5100, 5101, 5102, 5103, 5104, 5105, 5106, 5107, 5108, 5109, 5110, 5111, 5112
5113, 5114, 5115, 5116, 5117, 5118, 5119, 5120, 5121, 5122, 5123, 5124, 5125, 5126, 5127, 5128
5129, 5130, 5131, 5132, 5133, 5134, 5135, 5136, 5137, 5138, 5139, 5140, 5141, 5142, 5143, 5144
5145, 5146, 5147, 5148, 5149, 5150, 5151, 5152, 5153, 5154, 5155, 5156, 5157, 5158, 5159, 5160
5161, 5162, 5163, 5164, 5165, 5166, 5167, 5168, 5169, 5170, 5171, 5172, 5173, 5174, 5175, 5176
5177, 5178, 5179, 5180, 5181, 5182, 5183, 5184, 5185, 5186, 5187, 5188, 5189, 5190, 5191, 5192
5193, 5194, 5195, 5196, 5197, 5198, 5199, 5200, 5201, 5202, 5203, 5204, 5205, 5206, 5207, 5208
5209, 5210, 5211, 5212, 5213, 5214, 5215, 5216, 5217, 5218, 5219, 5220, 5221, 5222, 5223, 5224
5225, 5226, 5227, 5228, 5229, 5230, 5231, 5232, 5233, 5234, 5235, 5236, 5237, 5238, 5239, 5240
5241, 5242, 5243, 5244, 5245, 5246, 5247, 5248, 5249, 5250, 5251, 5252, 5253, 5254, 5255, 5256
5257, 5258, 5259, 5260, 5261, 5262, 5263, 5264, 5265, 5266, 5267, 5268, 5269, 5270, 5271, 5272
5273, 5274, 5275, 5276, 5277, 5278, 5279, 5280, 5281, 5282, 5283, 5284, 5285, 5286, 5287, 5288
5289, 5290, 5291, 5292, 5293, 5294, 5295, 5296, 5297, 5298, 5299, 5300, 5301, 5302, 5303, 5304
5305, 5306, 5307, 5308, 5309, 5310, 5311, 5312, 5313, 5314, 5315, 5316, 5317, 5318, 5319, 5320
5321, 5322, 5323, 5324, 5325, 5326, 5327, 5328, 5329, 5330, 5331, 5332, 5333, 5334, 5335, 5336
5337, 5338, 5339, 5340, 5341, 5342, 5343, 5344, 5345, 5346, 5347, 5348, 5349, 5350, 5351, 5352
5353, 5354, 5355, 5356, 5357, 5358, 5359, 5360, 5361, 5362, 5363, 5364, 5365, 5366, 5367, 5368
5369, 5370, 5371, 5372, 5373, 5374, 5375, 5376, 5377, 5378, 5379, 5380, 5381, 5382, 5383, 5384
5385, 5386, 5387, 5388, 5389, 5390, 5391, 5392, 5393, 5394, 5395, 5396, 5397, 5398, 5399, 5400
5401, 5402, 5403, 5404, 5405, 5406, 5407, 5408, 5409, 5410, 5411, 5412, 5413, 5414, 5415, 5416
5417, 5418, 5419, 5420, 5421, 5422, 5423, 5424, 5425, 5426, 5427, 5428, 5429, 5430, 5431, 5432
5433, 5434, 5435, 5436, 5437, 5438, 5439, 5440, 5441, 5442, 5443, 5444, 5445, 5446, 5447, 5448
5449, 5450, 5451, 5452, 5453, 5454, 5455, 5456, 5457, 5458, 5459, 5460, 5461, 5462, 5463, 5464
5465, 5466, 5467, 5468, 5469, 5470, 5471, 5472, 5473, 5474, 5475, 5476, 5477, 5478, 5479, 5480
5481, 5482, 5483, 5484, 5485, 5486, 5487, 5488, 5489, 5490, 5491, 5492, 5493, 5494, 5495, 5496
5497, 5498, 5499, 5500, 5501, 5502, 5503, 5504, 5505, 5506, 5507, 5508, 5509, 5510, 5511, 5512
5513, 5514, 5515, 5516, 5517, 5518, 5519, 5520, 5521, 5522, 5523, 5524, 5525, 5526, 5527, 5528
5529, 5530, 5531, 5532, 5533, 5534, 5535, 5536, 5537, 5538, 5539, 5540, 5541, 5542, 5543, 5544
5545, 5546, 5547, 5548, 5549, 5550, 5551, 5552, 5553, 5554, 5555, 5556, 5557, 5558, 5559, 5560
5561, 5562, 5563, 5564, 5565, 5566, 5567, 5568, 5569, 5570, 5571, 5572, 5573, 5574, 5575, 5576
5577, 5578, 5579, 5580, 5581, 5582, 5583, 5584, 5585, 5586, 5587, 5588, 5589, 5590, 5591, 5592
5593, 5594, 5595, 5596, 5597, 5598, 5599, 5600, 5601, 5602, 5603, 5604, 5605, 5606, 5607, 5608
5609, 5610, 5611, 5612, 5613, 5614, 5615, 5616, 5617, 5618, 5619, 5620, 5621, 5622, 5623, 5624
5625, 5626, 5627, 5628, 5629, 5630, 5631, 5632, 5633, 5634, 5635, 5636, 5637, 5638, 5639, 5640
5641, 5642, 5643, 5644, 5645, 5646, 5647, 5648, 5649, 5650, 5651, 5652, 5653, 5654, 5655, 5656
5657, 5658, 5659, 5660, 5661, 5662, 5663, 5664, 5665, 5666, 5667, 5668, 5669, 5670, 5671, 5672
5673, 5674, 5675, 5676, 5677, 5678, 5679, 5680, 5681, 5682, 5683, 5684, 5685, 5686, 5687, 5688
5689, 5690, 5691, 5692, 5693, 5694, 5695, 5696, 5697, 5698, 5699, 5700, 5701, 5702, 5703, 5704
5705, 5706, 5707, 5708, 5709, 5710, 5711, 5712, 5713, 5714, 5715, 5716, 5717, 5718, 5719, 5720
5721, 5722, 5723, 5724, 5725, 5726, 5727, 5728, 5729, 5730, 5731, 5732, 5733, 5734, 5735, 5736
5737, 5738, 5739, 5740, 5741, 5742, 5743, 5744, 5745, 5746, 5747, 5748, 5749, 5750, 5751, 5752
5753, 5754, 5755, 5756, 5757, 5758, 5759, 5760, 5761, 5762, 5763, 5764, 5765, 5766, 5767, 5768
5769, 5770, 5771, 5772, 5773, 5774, 5775, 5776, 5777, 5778, 5779, 5780, 5781, 5782, 5783, 5784
5785, 5786, 5787, 5788, 5789, 5790, 5791, 5792, 5793, 5794, 5795, 5796, 5797, 5798, 5799, 5800
5801, 5802, 5803, 5804, 5805, 5806, 5807, 5808, 5809, 5810, 5811, 5812, 5813, 5814, 5815, 5816
5817, 5818, 5819, 5820, 5821, 5822, 5823, 5824, 5825, 5826, 5827, 5828, 5829, 5830, 5831, 5832
5833, 5834, 5835, 5836, 5837, 5838, 5839, 5840, 5841, 5842, 5843, 5844, 5845, 5846, 5847, 5848
5849, 5850, 5851, 5852, 5853, 5854, 5855, 5856, 5857, 5858, 5859, 5860, 5861, 5862, 5863, 5864
5865, 5866, 5867, 5868, 5869, 5870, 5871, 5872, 5873, 5874, 5875, 5876, 5877, 5878, 5879, 5880
5881, 5882, 5883, 5884, 5885, 5886, 5887, 5888, 5889, 5890, 5891, 5892, 5893, 5894, 5895, 5896
5897, 5898, 5899, 5900, 5901, 5902, 5903, 5904, 5905, 5906, 5907, 5908, 5909, 5910, 5911, 5912
5913, 5914, 5915, 5916, 5917, 5918, 5919, 5920, 5921, 5922, 5923, 5924, 5925, 5926, 5927, 5928
5929, 5930, 5931, 5932, 5933, 5934, 5935, 5936, 5937, 5938, 5939, 5940, 5941, 5942, 5943, 5944
5945, 5946, 5947, 5948, 5949, 5950, 5951, 5952, 5953, 5954, 5955, 5956, 5957, 5958, 5959, 5960
5961, 5962, 5963, 5964, 5965, 5966, 5967, 5968, 5969, 5970, 5971, 5972, 5973, 5974, 5975, 5976
5977, 5978, 5979, 5980, 5981, 5982, 5983, 5984, 5985, 5986, 5987, 5988, 5989, 5990, 5991, 5992
5993, 5994, 5995, 5996, 5997, 5998, 5999, 6000, 6001, 6002, 6003, 6004, 6005, 6006, 6007, 6008
6009, 6010, 6011, 6012, 6013, 6014, 6015, 6016, 6017, 6018, 6019, 6020, 6021, 6022, 6023, 6024
6025, 6026, 6027, 6028, 6029, 6030, 6031, 6032, 6033, 6034, 6035, 6036, 6037, 6038, 6039, 6040
6041, 6042, 6043, 6044, 6045, 6046, 6047, 6048, 6049, 6050, 6051, 6052, 6053, 6054, 6055, 6056
6057, 6058, 6059, 6060, 6061, 6062, 6063, 6064, 6076, 6077, 6078, 6079, 6080, 6081, 6082, 6083
6084, 6085, 6086, 6087, 6088, 6089, 6090, 6091, 6092, 6093, 6094, 6095, 6096, 6097, 6098, 6099
6100, 6101, 6102, 6103, 6104, 6105, 6106, 6107, 6108, 6109, 6110, 6111, 6112, 6113, 6114, 6115
6116, 6117, 6118, 6119, 6120, 6121, 6122, 6123, 6124, 6125, 6137, 6138, 6139, 6140, 6141, 6142
6143, 6144, 6145, 6146, 6147, 6148, 6149, 6150, 6151, 6152, 6153, 6154, 6155, 6156, 6157, 6158
6159, 6160, 6161, 6162, 6163, 6164, 6165, 6166, 6167, 6168, 6169, 6170, 6171, 6172, 6173, 6174
6175, 6176, 6177, 6178, 6179, 6180, 6181, 6182, 6183, 6184, 6185, 6186, 6198, 6199, 6200, 6201
6202, 6203, 6204, 6205, 6206, 6207, 6208, 6209, 6210, 6211, 6212, 6213, 6214, 6215, 6216, 6217
6218, 6219, 6220, 6221, 6222, 6223, 6224, 6225, 6226, 6227, 6228, 6229, 6230, 6231, 6232, 6233
6234, 6235, 6236, 6237, 6238, 6239, 6240, 6241, 6242, 6243, 6244, 6245, 6246, 6247, 6259, 6260
6261, 6262, 6263, 6264, 6265, 6266, 6267, 6268, 6269, 6270, 6271, 6272, 6273, 6274, 6275, 6276
6277, 6278, 6279, 6280, 6281, 6282, 6283, 6284, 6285, 6286, 6287, 6288, 6289, 6290, 6291, 6292
6293, 6294, 6295, 6296, 6297, 6298, 6299, 6300, 6301, 6302, 6303, 6304, 6305, 6306, 6307, 6308
6320, 6321, 6322, 6323, 6324, 6325, 6326, 6327, 6328, 6329, 6330, 6331, 6332, 6333, 6334, 6335
6336, 6337, 6338, 6339, 6340, 6341, 6342, 6343, 6344, 6345, 6346, 6347, 6348, 6349, 6350, 6351
6352, 6353, 6354, 6355, 6356, 6357, 6358, 6359, 6360, 6361, 6362, 6363, 6364, 6365, 6366, 6367
6368, 6369, 6381, 6382, 6383, 6384, 6385, 6386, 6387, 6388, 6389, 6390, 6391, 6392, 6393, 6394
6395, 6396, 6397, 6398, 6399, 6400, 6401, 6402, 6403, 6404, 6405
*NSET, NSET=XMIN
1, 62, 123, 184, 245, 306, 367, 428, 489, 550, 611, 672, 733, 794, 855, 916
977, 1038, 1099, 1160, 1221, 1282, 1343, 1404, 1465, 1526, 1587, 1648, 1709, 1770, 1831, 1892
1953, 2014, 2075, 2136, 2197, 2258, 2319, 2380, 2441, 2502, 2563, 2624, 2685, 2746, 2807, 2868
2929, 2990, 3051, 3112, 3173, 3234, 3295, 3356, 3417, 3478, 3539, 3600, 3661, 3722, 3783, 3844
3905, 3966, 4027, 4088, 4149, 4210, 4271, 4332, 4393, 4454, 4515, 4576, 4637, 4698, 4759, 4820
4881, 4942, 5003, 5064, 5125, 5186, 5247, 5308, 5369, 5430, 5491, 5552, 5613, 5674, 5735, 5796
5857, 5918, 5979, 6040, 6101, 6162, 6223, 6284, 6345
*NSET, NSET=YMIN
1, 2, 3, 4, 5, 6, 7, 8, 9, 10, 11, 12, 13, 14, 15, 16
17, 18, 19, 20, 21, 22, 23, 24, 25, 26, 27, 28, 29, 30, 31, 32
33, 34, 35, 36, 37, 38, 39, 40, 41, 42, 43, 44, 45, 46, 47, 48
49, 50, 51, 52, 53, 54, 55, 56, 57, 58, 59, 60, 61, 1282, 1283, 1284
1285, 1286, 1287, 1288, 1289, 1290, 1291, 1292, 1293, 1294, 1295, 1296, 1297, 1298, 1299, 1300
1301, 1302, 1303, 1304, 1305, 1306, 1307, 1308, 1309, 1310, 1311, 1312, 1313, 1314, 1315, 1316
1317, 1318, 1319, 1320, 1321, 1322, 1323, 1324, 1325, 1326, 1327, 1328, 1329, 1330, 1331, 1332
1333, 1334, 1335, 1336, 1337, 1338, 1339, 1340, 1341, 1342, 2563, 2564, 2565, 2566, 2567, 2568
2569, 2570, 2571, 2572, 2573, 2574, 2575, 2576, 2577, 2578, 2579, 2580, 2581, 2582, 2583, 2584
2585, 2586, 2587, 2588, 2589, 2590, 2591, 2592, 2593, 2594, 2595, 2596, 2597, 2598, 2599, 2600
2601, 2602, 2603, 2604, 2605, 2606, 2607, 2608, 2609, 2610, 2611, 2612, 2613, 2614, 2615, 2616
2617, 2618, 2619, 2620, 2621, 2622, 2623, 3844, 3845, 3846, 3847, 3848, 3849, 3850, 3851, 3852
3853, 3854, 3855, 3856, 3857, 3858, 3859, 3860, 3861, 3862, 3863, 3864, 3865, 3866, 3867, 3868
3869, 3870, 3871, 3872, 3873, 3874, 3875, 3876, 3877, 3878, 3879, 3880, 3881, 3882, 3883, 3884
3885, 3886, 3887, 3888, 3889, 3890, 3891, 3892, 3893, 3894, 3895, 3896, 3897, 3898, 3899, 3900
3901, 3902, 3903, 3904, 5125, 5126, 5127, 5128, 5129, 5130, 5131, 5132, 5133, 5134, 5135, 5136
5137, 5138, 5139, 5140, 5141, 5142, 5143, 5144, 5145, 5146, 5147, 5148, 5149, 5150, 5151, 5152
5153, 5154, 5155, 5156, 5157, 5158, 5159, 5160, 5161, 5162, 5163, 5164, 5165, 5166, 5167, 5168
5169, 5170, 5171, 5172, 5173, 5174, 5175, 5176, 5177, 5178, 5179, 5180, 5181, 5182, 5183, 5184
5185
*NSET, NSET=ZMIN
1, 2, 3, 4, 5, 6, 7, 8, 9, 10, 11, 12, 13, 14, 15, 16
17, 18, 19, 20, 21, 22, 23, 24, 25, 26, 27, 28, 29, 30, 31, 32
33, 34, 35, 36, 37, 38, 39, 40, 41, 42, 43, 44, 45, 46, 47, 48
49, 50, 51, 52, 53, 54, 55, 56, 57, 58, 59, 60, 61, 62, 63, 64
65, 66, 67, 68, 69, 70, 71, 72, 73, 74, 75, 76, 77, 78, 79, 80
81, 82, 83, 84, 85, 86, 87, 88, 89, 90, 91, 92, 93, 94, 95, 96
97, 98, 99, 100, 101, 102, 103, 104, 105, 106, 107, 108, 109, 110, 111, 112
113, 114, 115, 116, 117, 118, 119, 120, 121, 122, 123, 124, 125, 126, 127, 128
129, 130, 131, 132, 133, 134, 135, 136, 137, 138, 139, 140, 141, 142, 143, 144
145, 146, 147, 148, 149, 150, 151, 152, 153, 154, 155, 156, 157, 158, 159, 160
161, 162, 163, 164, 165, 166, 167, 168, 169, 170, 171, 172, 173, 174, 175, 176
177, 178, 179, 180, 181, 182, 183, 184, 185, 186, 187, 188, 189, 190, 191, 192
193, 194, 195, 196, 197, 198, 199, 200, 201, 202, 203, 204, 205, 206, 207, 208
209, 210, 211, 212, 213, 214, 215, 216, 217, 218, 219, 220, 221, 222, 223, 224
225, 226, 227, 228, 229, 230, 231, 232, 233, 234, 235, 236, 237, 238, 239, 240
241, 242, 243, 244, 245, 246, 247, 248, 249, 250, 251, 252, 253, 254, 255, 256
257, 258, 259, 260, 261, 262, 263, 264, 265, 266, 267, 268, 269, 270, 271, 272
273, 274, 275, 276, 277, 278, 279, 280, 281, 282, 283, 284, 285, 286, 287, 288
289, 290, 291, 292, 293, 294, 295, 296, 297, 298, 299, 300, 301, 302, 303, 304
305, 306, 307, 308, 309, 310, 311, 312, 313, 314, 315, 316, 317, 318, 319, 320
321, 322, 323, 324, 325, 326, 327, 328, 329, 330, 331, 332, 333, 334, 335, 336
337, 338, 339, 340, 341, 342, 343, 344, 345, 346, 347, 348, 349, 350, 351, 352
353, 354, 355, 356, 357, 358, 359, 360, 361, 362, 363, 364, 365, 366, 367, 368
369, 370, 371, 372, 373, 374, 375, 376, 377, 378, 379, 380, 381, 382, 383, 384
385, 386, 387, 388, 389, 390, 391, 392, 393, 394, 395, 396, 397, 398, 399, 400
401, 402, 403, 404, 405, 406, 407, 408, 409, 410, 411, 412, 413, 414, 415, 416
417, 418, 419, 420, 421, 422, 423, 424, 425, 426, 427, 428, 429, 430, 431, 432
433, 434, 435, 436, 437, 438, 439, 440, 441, 442, 443, 444, 445, 446, 447, 448
449, 450, 451, 452, 453, 454, 455, 456, 457, 458, 459, 460, 461, 462, 463, 464
465, 466, 467, 468, 469, 470, 471, 472, 473, 474, 475, 476, 477, 478, 479, 480
481, 482, 483, 484, 485, 486, 487, 488, 489, 490, 491, 492, 493, 494, 495, 496
497, 498, 499, 500, 501, 502, 503, 504, 505, 506, 507, 508, 509, 510, 511, 512
513, 514, 515, 516, 517, 518, 519, 520, 521, 522, 523, 524, 525, 526, 527, 528
529, 530, 531, 532, 533, 534, 535, 536, 537, 538, 539, 540, 541, 542, 543, 544
545, 546, 547, 548, 549, 550, 551, 552, 553, 554, 555, 556, 557, 558, 559, 560
561, 562, 563, 564, 565, 566, 567, 568, 569, 570, 571, 572, 573, 574, 575, 576
577, 578, 579, 580, 581, 582, 583, 584, 585, 586, 587, 588, 589, 590, 591, 592
593, 594, 595, 596, 597, 598, 599, 600, 601, 602, 603, 604, 605, 606, 607, 608
609, 610, 611, 612, 613, 614, 615, 616, 617, 618, 619, 620, 621, 622, 623, 624
625, 626, 627, 628, 629, 630, 631, 632, 633, 634, 635, 636, 637, 638, 639, 640
641, 642, 643, 644, 645, 646, 647, 648, 649, 650, 651, 652, 653, 654, 655, 656
657, 658, 659, 660, 661, 662, 663, 664, 665, 666, 667, 668, 669, 670, 671, 672
673, 674, 675, 676, 677, 678, 679, 680, 681, 682, 683, 684, 685, 686, 687, 688
689, 690, 691, 692, 693, 694, 695, 696, 697, 698, 699, 700, 701, 702, 703, 704
705, 706, 707, 708, 709, 710, 711, 712, 713, 714, 715, 716, 717, 718, 719, 720
721, 722, 723, 724, 725, 726, 727, 728, 729, 730, 731, 732, 733, 734, 735, 736
737, 738, 739, 740, 741, 742, 743, 744, 745, 746, 747, 748, 749, 750, 751, 752
753, 754, 755, 756, 757, 758, 759, 760, 761, 762, 763, 764, 765, 766, 767, 768
769, 770, 771, 772, 773, 774, 775, 776, 777, 778, 779, 780, 781, 782, 783, 784
785, 786, 787, 788, 789, 790, 791, 792, 793, 794, 795, 796, 797, 798, 799, 800
801, 802, 803, 804, 805, 806, 807, 808, 809, 810, 811, 812, 813, 814, 815, 816
817, 818, 819, 820, 821, 822, 823, 824, 825, 826, 827, 828, 829, 830, 831, 832
833, 834, 835, 836, 837, 838, 839, 840, 841, 842, 843, 844, 845, 846, 847, 848
849, 850, 851, 852, 853, 854, 855, 856, 857, 858, 859, 860, 861, 862, 863, 864
865, 866, 867, 868, 869, 870, 871, 872, 873, 874, 875, 876, 877, 878, 879, 880
881, 882, 883, 884, 885, 886, 887, 888, 889, 890, 891, 892, 893, 894, 895, 896
897, 898, 899, 900, 901, 902, 903, 904, 905, 906, 907, 908, 909, 910, 911, 912
913, 914, 915, 916, 917, 918, 919, 920, 921, 922, 923, 924, 925, 926, 927, 928
929, 930, 931, 932, 933, 934, 935, 936, 937, 938, 939, 940, 952, 953, 954, 955
956, 957, 958, 959, 960, 961, 962, 963, 964, 965, 966, 967, 968, 969, 970, 971
972, 973, 974, 975, 976, 977, 978, 979, 980, 981, 982, 983, 984, 985, 986, 987
988, 989, 990, 991, 992, 993, 994, 995, 996, 997, 998, 999, 1000, 1001, 1013, 1014
1015, 1016, 1017, 1018, 1019, 1020, 1021, 1022, 1023, 1024, 1025, 1026, 1027, 1028, 1029, 1030
1031, 1032, 1033, 1034, 1035, 1036, 1037, 1038, 1039, 1040, 1041, 1042, 1043, 1044, 1045, 1046
1047, 1048, 1049, 1050, 1051, 1052, 1053, 1054, 1055, 1056, 1057, 1058, 1059, 1060, 1061, 1062
1074, 1075, 1076, 1077, 1078, 1079, 1080, 1081, 1082, 1083, 1084, 1085, 1086, 1087, 1088, 1089
1090, 1091, 1092, 1093, 1094, 1095, 1096, 1097, 1098, 1099, 1100, 1101, 1102, 1103, 1104, 1105
1106, 1107, 1108, 1109, 1110, 1111, 1112, 1113, 1114, 1115, 1116, 1117, 1118, 1119, 1120, 1121
1122, 1123, 1135, 1136, 1137, 1138, 1139, 1140, 1141, 1142, 1143, 1144, 1145, 1146, 1147, 1148
1149, 1150, 1151, 1152, 1153, 1154, 1155, 1156, 1157, 1158, 1159, 1160, 1161, 1162, 1163, 1164
1165, 1166, 1167, 1168, 1169, 1170, 1171, 1172, 1173, 1174, 1175, 1176, 1177, 1178, 1179, 1180
1181, 1182, 1183, 1184, 1196, 1197, 1198, 1199, 1200, 1201, 1202, 1203, 1204, 1205, 1206, 1207
1208, 1209, 1210, 1211, 1212, 1213, 1214, 1215, 1216, 1217, 1218, 1219, 1220, 1221, 1222, 1223
1224, 1225, 1226, 1227, 1228, 1229, 1230, 1231, 1232, 1233, 1234, 1235, 1236, 1237, 1238, 1239
1240, 1241, 1242, 1243, 1244, 1245, 1257, 1258, 1259, 1260, 1261, 1262, 1263, 1264, 1265, 1266
1267, 1268, 1269, 1270, 1271, 1272, 1273, 1274, 1275, 1276, 1277, 1278, 1279, 1280, 1281
*NSET, NSET=XMAX
61, 122, 183, 244, 305, 366, 427, 488, 549, 610, 671, 732, 793, 854, 915, 976
1037, 1098, 1159, 1220, 1281, 1342, 1403, 1464, 1525, 1586, 1647, 1708, 1769, 1830, 1891, 1952
2013, 2074, 2135, 2196, 2257, 2318, 2379, 2440, 2501, 2562, 2623, 2684, 2745, 2806, 2867, 2928
2989, 3050, 3111, 3172, 3233, 3294, 3355, 3416, 3477, 3538, 3599, 3660, 3721, 3782, 3843, 3904
3965, 4026, 4087, 4148, 4209, 4270, 4331, 4392, 4453, 4514, 4575, 4636, 4697, 4758, 4819, 4880
4941, 5002, 5063, 5124, 5185, 5246, 5307, 5368, 5429, 5490, 5551, 5612, 5673, 5734, 5795, 5856
5917, 5978, 6039, 6100, 6161, 6222, 6283, 6344, 6405
*ELSET, ELSET=PROBE
1698
*SOLID SECTION, ELSET=EALL, MATERIAL=VALIDATION
*MATERIAL, NAME=VALIDATION
*ELASTIC
1.0E9, 0.25
*DENSITY
1000.
*BOUNDARY
XMIN, 1, 3, 0.
*STEP
*STATIC
*CLOAD
61, 1, 3.125
122, 1, 6.25
183, 1, 6.25
244, 1, 6.25
305, 1, 6.25
366, 1, 6.25
427, 1, 6.25
488, 1, 6.25
549, 1, 6.25
610, 1, 6.25
671, 1, 6.25
732, 1, 6.25
793, 1, 6.25
854, 1, 6.25
915, 1, 6.25
976, 1, 6.25
1037, 1, 6.25
1098, 1, 6.25
1159, 1, 6.25
1220, 1, 6.25
1281, 1, 3.125
1342, 1, 6.25
1403, 1, 12.5
1464, 1, 12.5
1525, 1, 12.5
1586, 1, 12.5
1647, 1, 12.5
1708, 1, 12.5
1769, 1, 12.5
1830, 1, 12.5
1891, 1, 12.5
1952, 1, 12.5
2013, 1, 12.5
2074, 1, 12.5
2135, 1, 12.5
2196, 1, 12.5
2257, 1, 12.5
2318, 1, 12.5
2379, 1, 12.5
2440, 1, 12.5
2501, 1, 12.5
2562, 1, 6.25
2623, 1, 6.25
2684, 1, 12.5
2745, 1, 12.5
2806, 1, 12.5
2867, 1, 12.5
2928, 1, 12.5
2989, 1, 12.5
3050, 1, 12.5
3111, 1, 12.5
3172, 1, 12.5
3233, 1, 12.5
3294, 1, 12.5
3355, 1, 12.5
3416, 1, 12.5
3477, 1, 12.5
3538, 1, 12.5
3599, 1, 12.5
3660, 1, 12.5
3721, 1, 12.5
3782, 1, 12.5
3843, 1, 6.25
3904, 1, 6.25
3965, 1, 12.5
4026, 1, 12.5
4087, 1, 12.5
4148, 1, 12.5
4209, 1, 12.5
4270, 1, 12.5
4331, 1, 12.5
4392, 1, 12.5
4453, 1, 12.5
4514, 1, 12.5
4575, 1, 12.5
4636, 1, 12.5
4697, 1, 12.5
4758, 1, 12.5
4819, 1, 12.5
4880, 1, 12.5
4941, 1, 12.5
5002, 1, 12.5
5063, 1, 12.5
5124, 1, 6.25
5185, 1, 3.125
5246, 1, 6.25
5307, 1, 6.25
5368, 1, 6.25
5429, 1, 6.25
5490, 1, 6.25
5551, 1, 6.25
5612, 1, 6.25
5673, 1, 6.25
5734, 1, 6.25
5795, 1, 6.25
5856, 1, 6.25
5917, 1, 6.25
5978, 1, 6.25
6039, 1, 6.25
6100, 1, 6.25
6161, 1, 6.25
6222, 1, 6.25
6283, 1, 6.25
6344, 1, 6.25
6405, 1, 3.125
*NODE PRINT, NSET=XMAX
U
*NODE PRINT, NSET=XMIN, TOTALS=YES
RF
*EL PRINT, ELSET=PROBE
S
*END STEP
